*Heading
** Job name: MAIN_PHROZEN1G Model name: MAIN_PHROZEN1G
** Generated by: Abaqus/CAE 2023
*Preprint, echo=NO, model=NO, history=NO, contact=NO
**
** ----------------------------------------------------------------
** $$$$$$$$$$$$$$$$$$           NOTES             $$$$$$$$$$$$$$$$$
** ----------------------------------------------------------------
**
** Units: mm/tonne/N/s/mJ/K
**
** ----------------------------------------------------------------
** $$$$$$$$$$$$$$$$$$           PARTS             $$$$$$$$$$$$$$$$$
** ----------------------------------------------------------------
**
*INCLUDE, input=phrozen1f_bistable_20000.inp
**
** ----------------------------------------------------------------
** $$$$$$$$$$$$$$$$$$         MATERIALS           $$$$$$$$$$$$$$$$$
** ----------------------------------------------------------------
**
*INCLUDE, INPUT=phrozen_linear_visco_Tref90C.inp
**  
** ----------------------------------------------------------------
** $$$$$$$$$$$$$$$$$$        PARAMETERS           $$$$$$$$$$$$$$$$$
** ----------------------------------------------------------------
**
*PARAMETER
dt0       			= 0.0001
tend      			= 20500
dtmin     			= 1E-6
dtmax     			= 10 
Tref      			= 273
T0        			= 298
Thot      			= 423
Tsurf     			= 298
Tsink               = 298
heat_time           = 2500
h                   = 0.001
disp1_mag           = 2.5
equilibration_dt0   = 0.001
equilibration_tend  = 3600
equilibration_dtmin = 1E-6
equilibration_dtmax = 10
disp2_mag           = -1*disp1_mag
**
** ----------------------------------------------------------------
** $$$$$$$$$$$$$$$$$$$$       ASSEMBLY          $$$$$$$$$$$$$$$$$$$
** ----------------------------------------------------------------
**
** ASSEMBLY
**
*Assembly, name=Assembly
**  
*Instance, name=PART-1-1, part=PART-1
*End Instance
**  
*Elset, elset=_OUTER_SURF_S1, internal, instance=PART-1-1
  801,  802,  803,  804,  805,  806,  807,  808,  809,  810,  811,  812,  813,  814,  815,  816
  817,  818,  819,  820,  821,  822,  823,  824,  825,  826,  827,  828,  829,  830,  831,  832
  833,  834,  835,  836,  837,  838,  839,  840,  841,  842,  843,  844,  845,  846,  847,  848
  849,  850,  851,  852,  853,  854,  855,  856,  857,  858,  859,  860,  861,  862,  863,  864
  865,  866,  867,  868,  869,  870,  871,  872,  873,  874,  875,  876,  877,  878,  879,  880
  881,  882,  883,  884,  885,  886,  887,  888,  889,  890,  891,  892,  893,  894,  895,  896
  897,  898,  899,  900,  901,  902,  903,  904,  905,  906,  907,  908,  909,  910,  911,  912
  913,  914,  915,  916,  917,  918,  919,  920,  921,  922,  923,  924,  925,  926,  927,  928
  929,  930,  931,  932,  933,  934,  935,  936,  937,  938,  939,  940,  941,  942,  943,  944
  945,  946,  947,  948,  949,  950,  951,  952,  953,  954,  955,  956,  957,  958,  959,  960
  981,  982,  983,  984, 2185, 2186, 2187, 2188, 2189, 2190, 2191, 2192, 2193, 2194, 2195, 2196
 2197, 2198, 2199, 2200, 2201, 2202, 2203, 2204, 2205, 2206, 2207, 2208, 2209, 2210, 2211, 2212
 2213, 2214, 2215, 2216, 2217, 2218, 2219, 2220, 2221, 2222, 2223, 2224, 2225, 2226, 2227, 2228
 2229, 2230, 2231, 2232, 2233, 2234, 2235, 2236, 2237, 2238, 2239, 2240, 2241, 2242, 2243, 2244
 2245, 2246, 2247, 2248, 2249, 2250, 2251, 2252, 2253, 2254, 2255, 2256, 2257, 2258, 2259, 2260
 2261, 2262, 2263, 2264, 2265, 2266, 2267, 2268, 2269, 2270, 2271, 2272, 2273, 2274, 2275, 2276
 2277, 2278, 2279, 2280, 2281, 2282, 2283, 2284, 2285, 2286, 2287, 2288, 2289, 2290, 2291, 2292
 2293, 2294, 2295, 2296, 2297, 2298, 2299, 2300, 2301, 2302, 2303, 2304, 2305, 2306, 2307, 2308
 2309, 2310, 2311, 2312, 2313, 2314, 2315, 2316, 2317, 2318, 2319, 2320, 2321, 2322, 2323, 2324
 2325, 2326, 2327, 2328, 2329, 2330, 2331, 2332, 2333, 2334, 2335, 2336, 2337, 2338, 2339, 2340
 2341, 2342, 2343, 2344, 2345, 2346, 2347, 2348, 2349, 2350, 2351, 2352, 2353, 2354, 2355, 2356
 2357, 2358, 2359, 2360, 2361, 2362, 2363, 2364, 2365, 2366, 2367, 2368, 2369, 2370, 2371, 2372
 2373, 2374, 2375, 2376, 2377, 2378, 2379, 2380, 2381, 2382, 2383, 2384, 2385, 2386, 2387, 2388
 2389, 2390, 2391, 2392, 2393, 2394, 2395, 2396, 2397, 2398, 2399, 2400, 2401, 2402, 2403, 2404
 2405, 2406, 2407, 2408, 2409, 2410, 2411, 2412, 2413, 2414, 2415, 2416, 2417, 2418, 2419, 2420
 2421, 2422, 2423, 2424, 3625, 3626, 3627, 3628, 3629, 3630, 3631, 3632, 3633, 3634, 3635, 3636
 3637, 3638, 3639, 3640, 3641, 3642, 3643, 3644, 3645, 3646, 3647, 3648, 3649, 3650, 3651, 3652
 3653, 3654, 3655, 3656, 3657, 3658, 3659, 3660, 3661, 3662, 3663, 3664, 3665, 3666, 3667, 3668
 3669, 3670, 3671, 3672, 3673, 3674, 3675, 3676, 3677, 3678, 3679, 3680, 3681, 3682, 3683, 3684
 3685, 3686, 3687, 3688, 3689, 3690, 3691, 3692, 3693, 3694, 3695, 3696, 3697, 3698, 3699, 3700
 3701, 3702, 3703, 3704, 3705, 3706, 3707, 3708, 3709, 3710, 3711, 3712, 3713, 3714, 3715, 3716
 3717, 3718, 3719, 3720, 3721, 3722, 3723, 3724, 3725, 3726, 3727, 3728, 3729, 3730, 3731, 3732
 3733, 3734, 3735, 3736, 3737, 3738, 3739, 3740, 3741, 3742, 3743, 3744, 3745, 3746, 3747, 3748
 3749, 3750, 3751, 3752, 3753, 3754, 3755, 3756, 3757, 3758, 3759, 3760, 3761, 3762, 3763, 3764
 3765, 3766, 3767, 3768, 3769, 3770, 3771, 3772, 3773, 3774, 3775, 3776, 3777, 3778, 3779, 3780
 3781, 3782, 3783, 3784, 3785, 3786, 3787, 3788, 3789, 3790, 3791, 3792, 3793, 3794, 3795, 3796
 3797, 3798, 3799, 3800, 3801, 3802, 3803, 3804, 3805, 3806, 3807, 3808, 3809, 3810, 3811, 3812
 3813, 3814, 3815, 3816, 3817, 3818, 3819, 3820, 3821, 3822, 3823, 3824, 3825, 3826, 3827, 3828
 3829, 3830, 3831, 3832, 3833, 3834, 3835, 3836, 3837, 3838, 3839, 3840, 3841, 3842, 3843, 3844
 3845, 3846, 3847, 3848, 3849, 3850, 3851, 3852, 3853, 3854, 3855, 3856, 3857, 3858, 3859, 3860
 3861, 3862, 3863, 3864, 4265, 4266, 4267, 4268, 4269, 4270, 4271, 4272, 4273, 4274, 4275, 4276
 4277, 4278, 4279, 4280, 4281, 4282, 4283, 4284, 4285, 4286, 4287, 4288, 4289, 4290, 4291, 4292
 4293, 4294, 4295, 4296, 4297, 4298, 4299, 4300, 4301, 4302, 4303, 4304, 4305, 4306, 4307, 4308
 4309, 4310, 4311, 4312, 4313, 4314, 4315, 4316, 4317, 4318, 4319, 4320, 4321, 4322, 4323, 4324
 4325, 4326, 4327, 4328, 4329, 4330, 4331, 4332, 4333, 4334, 4335, 4336, 4337, 4338, 4339, 4340
 4341, 4342, 4343, 4344, 4745, 4746, 4747, 4748, 4749, 4750, 4751, 4752, 4753, 4754, 4755, 4756
 4757, 4758, 4759, 4760, 4761, 4762, 4763, 4764, 4765, 4766, 4767, 4768, 4769, 4770, 4771, 4772
 4773, 4774, 4775, 4776, 4777, 4778, 4779, 4780, 4781, 4782, 4783, 4784, 4785, 4786, 4787, 4788
 4789, 4790, 4791, 4792, 4793, 4794, 4795, 4796, 4797, 4798, 4799, 4800, 4801, 4802, 4803, 4804
 4805, 4806, 4807, 4808, 4809, 4810, 4811, 4812, 4813, 4814, 4815, 4816, 4817, 4818, 4819, 4820
 4821, 4822, 4823, 4824, 4965, 4966, 4967, 4968, 4969, 4970, 4971, 4972, 4973, 4974, 4975, 4976
 4977, 4978, 4979, 4980, 4981, 4982, 4983, 4984, 4985, 4986, 4987, 4988, 4989, 4990, 4991, 4992
 5153, 5154, 5155, 5156, 5157, 5158, 5159, 5160, 5161, 5162, 5163, 5164, 5165, 5166, 5167, 5168
 5169, 5170, 5171, 5172, 5173, 5174, 5175, 5176, 5177, 5178, 5179, 5180, 5181, 5182, 5183, 5184
 5585, 5586, 5587, 5588, 5589, 5590, 5591, 5592, 5593, 5594, 5595, 5596, 5597, 5598, 5599, 5600
 5601, 5602, 5603, 5604, 5605, 5606, 5607, 5608, 5609, 5610, 5611, 5612, 5613, 5614, 5615, 5616
 5617, 5618, 5619, 5620, 5621, 5622, 5623, 5624, 5625, 5626, 5627, 5628, 5629, 5630, 5631, 5632
 5633, 5634, 5635, 5636, 5637, 5638, 5639, 5640, 5641, 5642, 5643, 5644, 5645, 5646, 5647, 5648
 5649, 5650, 5651, 5652, 5653, 5654, 5655, 5656, 5657, 5658, 5659, 5660, 5661, 5662, 5663, 5664
 6065, 6066, 6067, 6068, 6069, 6070, 6071, 6072, 6073, 6074, 6075, 6076, 6077, 6078, 6079, 6080
 6081, 6082, 6083, 6084, 6085, 6086, 6087, 6088, 6089, 6090, 6091, 6092, 6093, 6094, 6095, 6096
 6097, 6098, 6099, 6100, 6101, 6102, 6103, 6104, 6105, 6106, 6107, 6108, 6109, 6110, 6111, 6112
 6113, 6114, 6115, 6116, 6117, 6118, 6119, 6120, 6121, 6122, 6123, 6124, 6125, 6126, 6127, 6128
 6129, 6130, 6131, 6132, 6133, 6134, 6135, 6136, 6137, 6138, 6139, 6140, 6141, 6142, 6143, 6144
 6385, 6386, 6387, 6388, 6389, 6390, 6391, 6392, 6393, 6394, 6395, 6396, 6397, 6398, 6399, 6400
 6401, 6402, 6403, 6404, 6405, 6406, 6407, 6408, 6409, 6410, 6411, 6412, 6413, 6414, 6415, 6416
 6417, 6418, 6419, 6420, 6421, 6422, 6423, 6424, 6425, 6426, 6427, 6428, 6429, 6430, 6431, 6432
 6673, 6674, 6675, 6676, 6677, 6678, 6679, 6680, 6681, 6682, 6683, 6684, 6685, 6686, 6687, 6688
 6689, 6690, 6691, 6692, 6693, 6694, 6695, 6696, 6697, 6698, 6699, 6700, 6701, 6702, 6703, 6704
 6705, 6706, 6707, 6708, 6709, 6710, 6711, 6712, 6713, 6714, 6715, 6716, 6717, 6718, 6719, 6720
 6961, 6962, 6963, 6964, 6965, 6966, 6967, 6968, 6969, 6970, 6971, 6972, 6973, 6974, 6975, 6976
 6977, 6978, 6979, 6980, 6981, 6982, 6983, 6984, 6985, 6986, 6987, 6988, 6989, 6990, 6991, 6992
 6993, 6994, 6995, 6996, 6997, 6998, 6999, 7000, 7001, 7002, 7003, 7004, 7005, 7006, 7007, 7008
 7249, 7250, 7251, 7252, 7253, 7254, 7255, 7256, 7257, 7258, 7259, 7260, 7261, 7262, 7263, 7264
 7265, 7266, 7267, 7268, 7269, 7270, 7271, 7272, 7273, 7274, 7275, 7276, 7277, 7278, 7279, 7280
 7281, 7282, 7283, 7284, 7285, 7286, 7287, 7288, 7289, 7290, 7291, 7292, 7293, 7294, 7295, 7296
*Elset, elset=_OUTER_SURF_S2, internal, instance=PART-1-1
    1,    2,    3,    4,    5,    6,    7,    8,    9,   10,   11,   12,   13,   14,   15,   16
   17,   18,   19,   20,   21,   22,   23,   24,   25,   26,   27,   28,   29,   30,   31,   32
   33,   34,   35,   36,   37,   38,   39,   40,   41,   42,   43,   44,   45,   46,   47,   48
   49,   50,   51,   52,   53,   54,   55,   56,   57,   58,   59,   60,   61,   62,   63,   64
   65,   66,   67,   68,   69,   70,   71,   72,   73,   74,   75,   76,   77,   78,   79,   80
   81,   82,   83,   84,   85,   86,   87,   88,   89,   90,   91,   92,   93,   94,   95,   96
   97,   98,   99,  100,  101,  102,  103,  104,  105,  106,  107,  108,  109,  110,  111,  112
  113,  114,  115,  116,  117,  118,  119,  120,  121,  122,  123,  124,  125,  126,  127,  128
  129,  130,  131,  132,  133,  134,  135,  136,  137,  138,  139,  140,  141,  142,  143,  144
  145,  146,  147,  148,  149,  150,  151,  152,  153,  154,  155,  156,  157,  158,  159,  160
  961,  962,  963,  964,  985,  986,  987,  988,  989,  990,  991,  992,  993,  994,  995,  996
  997,  998,  999, 1000, 1001, 1002, 1003, 1004, 1005, 1006, 1007, 1008, 1009, 1010, 1011, 1012
 1013, 1014, 1015, 1016, 1017, 1018, 1019, 1020, 1021, 1022, 1023, 1024, 1025, 1026, 1027, 1028
 1029, 1030, 1031, 1032, 1033, 1034, 1035, 1036, 1037, 1038, 1039, 1040, 1041, 1042, 1043, 1044
 1045, 1046, 1047, 1048, 1049, 1050, 1051, 1052, 1053, 1054, 1055, 1056, 1057, 1058, 1059, 1060
 1061, 1062, 1063, 1064, 1065, 1066, 1067, 1068, 1069, 1070, 1071, 1072, 1073, 1074, 1075, 1076
 1077, 1078, 1079, 1080, 1081, 1082, 1083, 1084, 1085, 1086, 1087, 1088, 1089, 1090, 1091, 1092
 1093, 1094, 1095, 1096, 1097, 1098, 1099, 1100, 1101, 1102, 1103, 1104, 1105, 1106, 1107, 1108
 1109, 1110, 1111, 1112, 1113, 1114, 1115, 1116, 1117, 1118, 1119, 1120, 1121, 1122, 1123, 1124
 1125, 1126, 1127, 1128, 1129, 1130, 1131, 1132, 1133, 1134, 1135, 1136, 1137, 1138, 1139, 1140
 1141, 1142, 1143, 1144, 1145, 1146, 1147, 1148, 1149, 1150, 1151, 1152, 1153, 1154, 1155, 1156
 1157, 1158, 1159, 1160, 1161, 1162, 1163, 1164, 1165, 1166, 1167, 1168, 1169, 1170, 1171, 1172
 1173, 1174, 1175, 1176, 1177, 1178, 1179, 1180, 1181, 1182, 1183, 1184, 1185, 1186, 1187, 1188
 1189, 1190, 1191, 1192, 1193, 1194, 1195, 1196, 1197, 1198, 1199, 1200, 1201, 1202, 1203, 1204
 1205, 1206, 1207, 1208, 1209, 1210, 1211, 1212, 1213, 1214, 1215, 1216, 1217, 1218, 1219, 1220
 1221, 1222, 1223, 1224, 2425, 2426, 2427, 2428, 2429, 2430, 2431, 2432, 2433, 2434, 2435, 2436
 2437, 2438, 2439, 2440, 2441, 2442, 2443, 2444, 2445, 2446, 2447, 2448, 2449, 2450, 2451, 2452
 2453, 2454, 2455, 2456, 2457, 2458, 2459, 2460, 2461, 2462, 2463, 2464, 2465, 2466, 2467, 2468
 2469, 2470, 2471, 2472, 2473, 2474, 2475, 2476, 2477, 2478, 2479, 2480, 2481, 2482, 2483, 2484
 2485, 2486, 2487, 2488, 2489, 2490, 2491, 2492, 2493, 2494, 2495, 2496, 2497, 2498, 2499, 2500
 2501, 2502, 2503, 2504, 2505, 2506, 2507, 2508, 2509, 2510, 2511, 2512, 2513, 2514, 2515, 2516
 2517, 2518, 2519, 2520, 2521, 2522, 2523, 2524, 2525, 2526, 2527, 2528, 2529, 2530, 2531, 2532
 2533, 2534, 2535, 2536, 2537, 2538, 2539, 2540, 2541, 2542, 2543, 2544, 2545, 2546, 2547, 2548
 2549, 2550, 2551, 2552, 2553, 2554, 2555, 2556, 2557, 2558, 2559, 2560, 2561, 2562, 2563, 2564
 2565, 2566, 2567, 2568, 2569, 2570, 2571, 2572, 2573, 2574, 2575, 2576, 2577, 2578, 2579, 2580
 2581, 2582, 2583, 2584, 2585, 2586, 2587, 2588, 2589, 2590, 2591, 2592, 2593, 2594, 2595, 2596
 2597, 2598, 2599, 2600, 2601, 2602, 2603, 2604, 2605, 2606, 2607, 2608, 2609, 2610, 2611, 2612
 2613, 2614, 2615, 2616, 2617, 2618, 2619, 2620, 2621, 2622, 2623, 2624, 2625, 2626, 2627, 2628
 2629, 2630, 2631, 2632, 2633, 2634, 2635, 2636, 2637, 2638, 2639, 2640, 2641, 2642, 2643, 2644
 2645, 2646, 2647, 2648, 2649, 2650, 2651, 2652, 2653, 2654, 2655, 2656, 2657, 2658, 2659, 2660
 2661, 2662, 2663, 2664, 3865, 3866, 3867, 3868, 3869, 3870, 3871, 3872, 3873, 3874, 3875, 3876
 3877, 3878, 3879, 3880, 3881, 3882, 3883, 3884, 3885, 3886, 3887, 3888, 3889, 3890, 3891, 3892
 3893, 3894, 3895, 3896, 3897, 3898, 3899, 3900, 3901, 3902, 3903, 3904, 3905, 3906, 3907, 3908
 3909, 3910, 3911, 3912, 3913, 3914, 3915, 3916, 3917, 3918, 3919, 3920, 3921, 3922, 3923, 3924
 3925, 3926, 3927, 3928, 3929, 3930, 3931, 3932, 3933, 3934, 3935, 3936, 3937, 3938, 3939, 3940
 3941, 3942, 3943, 3944, 4345, 4346, 4347, 4348, 4349, 4350, 4351, 4352, 4353, 4354, 4355, 4356
 4357, 4358, 4359, 4360, 4361, 4362, 4363, 4364, 4365, 4366, 4367, 4368, 4369, 4370, 4371, 4372
 4373, 4374, 4375, 4376, 4377, 4378, 4379, 4380, 4381, 4382, 4383, 4384, 4385, 4386, 4387, 4388
 4389, 4390, 4391, 4392, 4393, 4394, 4395, 4396, 4397, 4398, 4399, 4400, 4401, 4402, 4403, 4404
 4405, 4406, 4407, 4408, 4409, 4410, 4411, 4412, 4413, 4414, 4415, 4416, 4417, 4418, 4419, 4420
 4421, 4422, 4423, 4424, 4825, 4826, 4827, 4828, 4829, 4830, 4831, 4832, 4833, 4834, 4835, 4836
 4837, 4838, 4839, 4840, 4841, 4842, 4843, 4844, 4845, 4846, 4847, 4848, 4849, 4850, 4851, 4852
 4993, 4994, 4995, 4996, 4997, 4998, 4999, 5000, 5001, 5002, 5003, 5004, 5005, 5006, 5007, 5008
 5009, 5010, 5011, 5012, 5013, 5014, 5015, 5016, 5017, 5018, 5019, 5020, 5021, 5022, 5023, 5024
 5185, 5186, 5187, 5188, 5189, 5190, 5191, 5192, 5193, 5194, 5195, 5196, 5197, 5198, 5199, 5200
 5201, 5202, 5203, 5204, 5205, 5206, 5207, 5208, 5209, 5210, 5211, 5212, 5213, 5214, 5215, 5216
 5217, 5218, 5219, 5220, 5221, 5222, 5223, 5224, 5225, 5226, 5227, 5228, 5229, 5230, 5231, 5232
 5233, 5234, 5235, 5236, 5237, 5238, 5239, 5240, 5241, 5242, 5243, 5244, 5245, 5246, 5247, 5248
 5249, 5250, 5251, 5252, 5253, 5254, 5255, 5256, 5257, 5258, 5259, 5260, 5261, 5262, 5263, 5264
 5665, 5666, 5667, 5668, 5669, 5670, 5671, 5672, 5673, 5674, 5675, 5676, 5677, 5678, 5679, 5680
 5681, 5682, 5683, 5684, 5685, 5686, 5687, 5688, 5689, 5690, 5691, 5692, 5693, 5694, 5695, 5696
 5697, 5698, 5699, 5700, 5701, 5702, 5703, 5704, 5705, 5706, 5707, 5708, 5709, 5710, 5711, 5712
 5713, 5714, 5715, 5716, 5717, 5718, 5719, 5720, 5721, 5722, 5723, 5724, 5725, 5726, 5727, 5728
 5729, 5730, 5731, 5732, 5733, 5734, 5735, 5736, 5737, 5738, 5739, 5740, 5741, 5742, 5743, 5744
 6145, 6146, 6147, 6148, 6149, 6150, 6151, 6152, 6153, 6154, 6155, 6156, 6157, 6158, 6159, 6160
 6161, 6162, 6163, 6164, 6165, 6166, 6167, 6168, 6169, 6170, 6171, 6172, 6173, 6174, 6175, 6176
 6177, 6178, 6179, 6180, 6181, 6182, 6183, 6184, 6185, 6186, 6187, 6188, 6189, 6190, 6191, 6192
 6433, 6434, 6435, 6436, 6437, 6438, 6439, 6440, 6441, 6442, 6443, 6444, 6445, 6446, 6447, 6448
 6449, 6450, 6451, 6452, 6453, 6454, 6455, 6456, 6457, 6458, 6459, 6460, 6461, 6462, 6463, 6464
 6465, 6466, 6467, 6468, 6469, 6470, 6471, 6472, 6473, 6474, 6475, 6476, 6477, 6478, 6479, 6480
 6721, 6722, 6723, 6724, 6725, 6726, 6727, 6728, 6729, 6730, 6731, 6732, 6733, 6734, 6735, 6736
 6737, 6738, 6739, 6740, 6741, 6742, 6743, 6744, 6745, 6746, 6747, 6748, 6749, 6750, 6751, 6752
 6753, 6754, 6755, 6756, 6757, 6758, 6759, 6760, 6761, 6762, 6763, 6764, 6765, 6766, 6767, 6768
 7009, 7010, 7011, 7012, 7013, 7014, 7015, 7016, 7017, 7018, 7019, 7020, 7021, 7022, 7023, 7024
 7025, 7026, 7027, 7028, 7029, 7030, 7031, 7032, 7033, 7034, 7035, 7036, 7037, 7038, 7039, 7040
 7041, 7042, 7043, 7044, 7045, 7046, 7047, 7048, 7049, 7050, 7051, 7052, 7053, 7054, 7055, 7056
*Elset, elset=_OUTER_SURF_S3, internal, instance=PART-1-1
 121, 122, 123, 124, 125, 126, 127, 128, 129, 130, 131, 132, 133, 134, 135, 136
 137, 138, 139, 140, 141, 142, 143, 144, 145, 146, 147, 148, 149, 150, 151, 152
 153, 154, 155, 156, 157, 158, 159, 160, 281, 282, 283, 284, 285, 286, 287, 288
 289, 290, 291, 292, 293, 294, 295, 296, 297, 298, 299, 300, 301, 302, 303, 304
 305, 306, 307, 308, 309, 310, 311, 312, 313, 314, 315, 316, 317, 318, 319, 320
 441, 442, 443, 444, 445, 446, 447, 448, 449, 450, 451, 452, 453, 454, 455, 456
 457, 458, 459, 460, 461, 462, 463, 464, 465, 466, 467, 468, 469, 470, 471, 472
 473, 474, 475, 476, 477, 478, 479, 480, 601, 602, 603, 604, 605, 606, 607, 608
 609, 610, 611, 612, 613, 614, 615, 616, 617, 618, 619, 620, 621, 622, 623, 624
 625, 626, 627, 628, 629, 630, 631, 632, 633, 634, 635, 636, 637, 638, 639, 640
 761, 762, 763, 764, 765, 766, 767, 768, 769, 770, 771, 772, 773, 774, 775, 776
 777, 778, 779, 780, 781, 782, 783, 784, 785, 786, 787, 788, 789, 790, 791, 792
 793, 794, 795, 796, 797, 798, 799, 800, 921, 922, 923, 924, 925, 926, 927, 928
 929, 930, 931, 932, 933, 934, 935, 936, 937, 938, 939, 940, 941, 942, 943, 944
 945, 946, 947, 948, 949, 950, 951, 952, 953, 954, 955, 956, 957, 958, 959, 960
*Elset, elset=_OUTER_SURF_S4, internal, instance=PART-1-1
  985,  991,  997, 1003, 1009, 1015, 1021, 1027, 1033, 1039, 1045, 1051, 1057, 1063, 1069, 1075
 1081, 1087, 1093, 1099, 1105, 1111, 1117, 1123, 1129, 1135, 1141, 1147, 1153, 1159, 1165, 1171
 1177, 1183, 1189, 1195, 1201, 1207, 1213, 1219, 1225, 1231, 1237, 1243, 1249, 1255, 1261, 1267
 1273, 1279, 1285, 1291, 1297, 1303, 1309, 1315, 1321, 1327, 1333, 1339, 1345, 1351, 1357, 1363
 1369, 1375, 1381, 1387, 1393, 1399, 1405, 1411, 1417, 1423, 1429, 1435, 1441, 1447, 1453, 1459
 1465, 1471, 1477, 1483, 1489, 1495, 1501, 1507, 1513, 1519, 1525, 1531, 1537, 1543, 1549, 1555
 1561, 1567, 1573, 1579, 1585, 1591, 1597, 1603, 1609, 1615, 1621, 1627, 1633, 1639, 1645, 1651
 1657, 1663, 1669, 1675, 1681, 1687, 1693, 1699, 1705, 1711, 1717, 1723, 1729, 1735, 1741, 1747
 1753, 1759, 1765, 1771, 1777, 1783, 1789, 1795, 1801, 1807, 1813, 1819, 1825, 1831, 1837, 1843
 1849, 1855, 1861, 1867, 1873, 1879, 1885, 1891, 1897, 1903, 1909, 1915, 1921, 1927, 1933, 1939
 1945, 1951, 1957, 1963, 1969, 1975, 1981, 1987, 1993, 1999, 2005, 2011, 2017, 2023, 2029, 2035
 2041, 2047, 2053, 2059, 2065, 2071, 2077, 2083, 2089, 2095, 2101, 2107, 2113, 2119, 2125, 2131
 2137, 2143, 2149, 2155, 2161, 2167, 2173, 2179, 2185, 2191, 2197, 2203, 2209, 2215, 2221, 2227
 2233, 2239, 2245, 2251, 2257, 2263, 2269, 2275, 2281, 2287, 2293, 2299, 2305, 2311, 2317, 2323
 2329, 2335, 2341, 2347, 2353, 2359, 2365, 2371, 2377, 2383, 2389, 2395, 2401, 2407, 2413, 2419
 2425, 2431, 2437, 2443, 2449, 2455, 2461, 2467, 2473, 2479, 2485, 2491, 2497, 2503, 2509, 2515
 2521, 2527, 2533, 2539, 2545, 2551, 2557, 2563, 2569, 2575, 2581, 2587, 2593, 2599, 2605, 2611
 2617, 2623, 2629, 2635, 2641, 2647, 2653, 2659, 2665, 2671, 2677, 2683, 2689, 2695, 2701, 2707
 2713, 2719, 2725, 2731, 2737, 2743, 2749, 2755, 2761, 2767, 2773, 2779, 2785, 2791, 2797, 2803
 2809, 2815, 2821, 2827, 2833, 2839, 2845, 2851, 2857, 2863, 2869, 2875, 2881, 2887, 2893, 2899
 2905, 2911, 2917, 2923, 2929, 2935, 2941, 2947, 2953, 2959, 2965, 2971, 2977, 2983, 2989, 2995
 3001, 3007, 3013, 3019, 3025, 3031, 3037, 3043, 3049, 3055, 3061, 3067, 3073, 3079, 3085, 3091
 3097, 3103, 3109, 3115, 3121, 3127, 3133, 3139, 3145, 3151, 3157, 3163, 3169, 3175, 3181, 3187
 3193, 3199, 3205, 3211, 3217, 3223, 3229, 3235, 3241, 3247, 3253, 3259, 3265, 3271, 3277, 3283
 3289, 3295, 3301, 3307, 3313, 3319, 3325, 3331, 3337, 3343, 3349, 3355, 3361, 3367, 3373, 3379
 3385, 3391, 3397, 3403, 3409, 3415, 3421, 3427, 3433, 3439, 3445, 3451, 3457, 3463, 3469, 3475
 3481, 3487, 3493, 3499, 3505, 3511, 3517, 3523, 3529, 3535, 3541, 3547, 3553, 3559, 3565, 3571
 3577, 3583, 3589, 3595, 3601, 3607, 3613, 3619, 3625, 3631, 3637, 3643, 3649, 3655, 3661, 3667
 3673, 3679, 3685, 3691, 3697, 3703, 3709, 3715, 3721, 3727, 3733, 3739, 3745, 3751, 3757, 3763
 3769, 3775, 3781, 3787, 3793, 3799, 3805, 3811, 3817, 3823, 3829, 3835, 3841, 3847, 3853, 3859
 3865, 3873, 3881, 3889, 3897, 3905, 3913, 3921, 3929, 3937, 3945, 3953, 3961, 3969, 3977, 3985
 3993, 4001, 4009, 4017, 4025, 4033, 4041, 4049, 4057, 4065, 4073, 4081, 4089, 4097, 4105, 4113
 4121, 4129, 4137, 4145, 4153, 4161, 4169, 4177, 4185, 4193, 4201, 4209, 4217, 4225, 4233, 4241
 4249, 4257, 4265, 4273, 4281, 4289, 4297, 4305, 4313, 4321, 4329, 4337, 4345, 4353, 4361, 4369
 4377, 4385, 4393, 4401, 4409, 4417, 4425, 4433, 4441, 4449, 4457, 4465, 4473, 4481, 4489, 4497
 4505, 4513, 4521, 4529, 4537, 4545, 4553, 4561, 4569, 4577, 4585, 4593, 4601, 4609, 4617, 4625
 4633, 4641, 4649, 4657, 4665, 4673, 4681, 4689, 4697, 4705, 4713, 4721, 4729, 4737, 4745, 4753
 4761, 4769, 4777, 4785, 4793, 4801, 4809, 4817, 4825, 4832, 4839, 4846, 4853, 4860, 4867, 4874
 4881, 4888, 4895, 4902, 4909, 4916, 4923, 4930, 4937, 4944, 4951, 4958, 4965, 4972, 4979, 4986
 5185, 5193, 5201, 5209, 5217, 5225, 5233, 5241, 5249, 5257, 5265, 5273, 5281, 5289, 5297, 5305
 5313, 5321, 5329, 5337, 5345, 5353, 5361, 5369, 5377, 5385, 5393, 5401, 5409, 5417, 5425, 5433
 5441, 5449, 5457, 5465, 5473, 5481, 5489, 5497, 5505, 5513, 5521, 5529, 5537, 5545, 5553, 5561
 5569, 5577, 5585, 5593, 5601, 5609, 5617, 5625, 5633, 5641, 5649, 5657, 5665, 5673, 5681, 5689
 5697, 5705, 5713, 5721, 5729, 5737, 5745, 5753, 5761, 5769, 5777, 5785, 5793, 5801, 5809, 5817
 5825, 5833, 5841, 5849, 5857, 5865, 5873, 5881, 5889, 5897, 5905, 5913, 5921, 5929, 5937, 5945
 5953, 5961, 5969, 5977, 5985, 5993, 6001, 6009, 6017, 6025, 6033, 6041, 6049, 6057, 6065, 6073
 6081, 6089, 6097, 6105, 6113, 6121, 6129, 6137, 6145, 6153, 6161, 6169, 6177, 6185, 6193, 6201
 6209, 6217, 6225, 6233, 6241, 6249, 6257, 6265, 6273, 6281, 6289, 6297, 6305, 6313, 6321, 6329
 6337, 6345, 6353, 6361, 6369, 6377, 6385, 6393, 6401, 6409, 6417, 6425, 7009, 7017, 7025, 7033
 7041, 7049, 7057, 7065, 7073, 7081, 7089, 7097, 7105, 7113, 7121, 7129, 7137, 7145, 7153, 7161
 7169, 7177, 7185, 7193, 7201, 7209, 7217, 7225, 7233, 7241, 7249, 7257, 7265, 7273, 7281, 7289
*Elset, elset=_OUTER_SURF_S5, internal, instance=PART-1-1
    1,    2,    3,    4,    5,    6,    7,    8,    9,   10,   11,   12,   13,   14,   15,   16
   17,   18,   19,   20,   21,   22,   23,   24,   25,   26,   27,   28,   29,   30,   31,   32
   33,   34,   35,   36,   37,   38,   39,   40,  161,  162,  163,  164,  165,  166,  167,  168
  169,  170,  171,  172,  173,  174,  175,  176,  177,  178,  179,  180,  181,  182,  183,  184
  185,  186,  187,  188,  189,  190,  191,  192,  193,  194,  195,  196,  197,  198,  199,  200
  321,  322,  323,  324,  325,  326,  327,  328,  329,  330,  331,  332,  333,  334,  335,  336
  337,  338,  339,  340,  341,  342,  343,  344,  345,  346,  347,  348,  349,  350,  351,  352
  353,  354,  355,  356,  357,  358,  359,  360,  481,  482,  483,  484,  485,  486,  487,  488
  489,  490,  491,  492,  493,  494,  495,  496,  497,  498,  499,  500,  501,  502,  503,  504
  505,  506,  507,  508,  509,  510,  511,  512,  513,  514,  515,  516,  517,  518,  519,  520
  641,  642,  643,  644,  645,  646,  647,  648,  649,  650,  651,  652,  653,  654,  655,  656
  657,  658,  659,  660,  661,  662,  663,  664,  665,  666,  667,  668,  669,  670,  671,  672
  673,  674,  675,  676,  677,  678,  679,  680,  801,  802,  803,  804,  805,  806,  807,  808
  809,  810,  811,  812,  813,  814,  815,  816,  817,  818,  819,  820,  821,  822,  823,  824
  825,  826,  827,  828,  829,  830,  831,  832,  833,  834,  835,  836,  837,  838,  839,  840
 6145, 6146, 6147, 6148, 6149, 6150, 6151, 6152, 6193, 6194, 6195, 6196, 6197, 6198, 6199, 6200
 6241, 6242, 6243, 6244, 6245, 6246, 6247, 6248, 6289, 6290, 6291, 6292, 6293, 6294, 6295, 6296
 6337, 6338, 6339, 6340, 6341, 6342, 6343, 6344, 6385, 6386, 6387, 6388, 6389, 6390, 6391, 6392
 6433, 6434, 6435, 6436, 6437, 6438, 6439, 6440, 6481, 6482, 6483, 6484, 6485, 6486, 6487, 6488
 6529, 6530, 6531, 6532, 6533, 6534, 6535, 6536, 6577, 6578, 6579, 6580, 6581, 6582, 6583, 6584
 6625, 6626, 6627, 6628, 6629, 6630, 6631, 6632, 6673, 6674, 6675, 6676, 6677, 6678, 6679, 6680
 6721, 6722, 6723, 6724, 6725, 6726, 6727, 6728, 6769, 6770, 6771, 6772, 6773, 6774, 6775, 6776
 6817, 6818, 6819, 6820, 6821, 6822, 6823, 6824, 6865, 6866, 6867, 6868, 6869, 6870, 6871, 6872
 6913, 6914, 6915, 6916, 6917, 6918, 6919, 6920, 6961, 6962, 6963, 6964, 6965, 6966, 6967, 6968
 7009, 7010, 7011, 7012, 7013, 7014, 7015, 7016, 7057, 7058, 7059, 7060, 7061, 7062, 7063, 7064
 7105, 7106, 7107, 7108, 7109, 7110, 7111, 7112, 7153, 7154, 7155, 7156, 7157, 7158, 7159, 7160
 7201, 7202, 7203, 7204, 7205, 7206, 7207, 7208, 7249, 7250, 7251, 7252, 7253, 7254, 7255, 7256
*Elset, elset=_OUTER_SURF_S6, internal, instance=PART-1-1
  990,  996, 1002, 1008, 1014, 1020, 1026, 1032, 1038, 1044, 1050, 1056, 1062, 1068, 1074, 1080
 1086, 1092, 1098, 1104, 1110, 1116, 1122, 1128, 1134, 1140, 1146, 1152, 1158, 1164, 1170, 1176
 1182, 1188, 1194, 1200, 1206, 1212, 1218, 1224, 1230, 1236, 1242, 1248, 1254, 1260, 1266, 1272
 1278, 1284, 1290, 1296, 1302, 1308, 1314, 1320, 1326, 1332, 1338, 1344, 1350, 1356, 1362, 1368
 1374, 1380, 1386, 1392, 1398, 1404, 1410, 1416, 1422, 1428, 1434, 1440, 1446, 1452, 1458, 1464
 1470, 1476, 1482, 1488, 1494, 1500, 1506, 1512, 1518, 1524, 1530, 1536, 1542, 1548, 1554, 1560
 1566, 1572, 1578, 1584, 1590, 1596, 1602, 1608, 1614, 1620, 1626, 1632, 1638, 1644, 1650, 1656
 1662, 1668, 1674, 1680, 1686, 1692, 1698, 1704, 1710, 1716, 1722, 1728, 1734, 1740, 1746, 1752
 1758, 1764, 1770, 1776, 1782, 1788, 1794, 1800, 1806, 1812, 1818, 1824, 1830, 1836, 1842, 1848
 1854, 1860, 1866, 1872, 1878, 1884, 1890, 1896, 1902, 1908, 1914, 1920, 1926, 1932, 1938, 1944
 1950, 1956, 1962, 1968, 1974, 1980, 1986, 1992, 1998, 2004, 2010, 2016, 2022, 2028, 2034, 2040
 2046, 2052, 2058, 2064, 2070, 2076, 2082, 2088, 2094, 2100, 2106, 2112, 2118, 2124, 2130, 2136
 2142, 2148, 2154, 2160, 2166, 2172, 2178, 2184, 2190, 2196, 2202, 2208, 2214, 2220, 2226, 2232
 2238, 2244, 2250, 2256, 2262, 2268, 2274, 2280, 2286, 2292, 2298, 2304, 2310, 2316, 2322, 2328
 2334, 2340, 2346, 2352, 2358, 2364, 2370, 2376, 2382, 2388, 2394, 2400, 2406, 2412, 2418, 2424
 2430, 2436, 2442, 2448, 2454, 2460, 2466, 2472, 2478, 2484, 2490, 2496, 2502, 2508, 2514, 2520
 2526, 2532, 2538, 2544, 2550, 2556, 2562, 2568, 2574, 2580, 2586, 2592, 2598, 2604, 2610, 2616
 2622, 2628, 2634, 2640, 2646, 2652, 2658, 2664, 2670, 2676, 2682, 2688, 2694, 2700, 2706, 2712
 2718, 2724, 2730, 2736, 2742, 2748, 2754, 2760, 2766, 2772, 2778, 2784, 2790, 2796, 2802, 2808
 2814, 2820, 2826, 2832, 2838, 2844, 2850, 2856, 2862, 2868, 2874, 2880, 2886, 2892, 2898, 2904
 2910, 2916, 2922, 2928, 2934, 2940, 2946, 2952, 2958, 2964, 2970, 2976, 2982, 2988, 2994, 3000
 3006, 3012, 3018, 3024, 3030, 3036, 3042, 3048, 3054, 3060, 3066, 3072, 3078, 3084, 3090, 3096
 3102, 3108, 3114, 3120, 3126, 3132, 3138, 3144, 3150, 3156, 3162, 3168, 3174, 3180, 3186, 3192
 3198, 3204, 3210, 3216, 3222, 3228, 3234, 3240, 3246, 3252, 3258, 3264, 3270, 3276, 3282, 3288
 3294, 3300, 3306, 3312, 3318, 3324, 3330, 3336, 3342, 3348, 3354, 3360, 3366, 3372, 3378, 3384
 3390, 3396, 3402, 3408, 3414, 3420, 3426, 3432, 3438, 3444, 3450, 3456, 3462, 3468, 3474, 3480
 3486, 3492, 3498, 3504, 3510, 3516, 3522, 3528, 3534, 3540, 3546, 3552, 3558, 3564, 3570, 3576
 3582, 3588, 3594, 3600, 3606, 3612, 3618, 3624, 3630, 3636, 3642, 3648, 3654, 3660, 3666, 3672
 3678, 3684, 3690, 3696, 3702, 3708, 3714, 3720, 3726, 3732, 3738, 3744, 3750, 3756, 3762, 3768
 3774, 3780, 3786, 3792, 3798, 3804, 3810, 3816, 3822, 3828, 3834, 3840, 3846, 3852, 3858, 3864
 3872, 3880, 3888, 3896, 3904, 3912, 3920, 3928, 3936, 3944, 3952, 3960, 3968, 3976, 3984, 3992
 4000, 4008, 4016, 4024, 4032, 4040, 4048, 4056, 4064, 4072, 4080, 4088, 4096, 4104, 4112, 4120
 4128, 4136, 4144, 4152, 4160, 4168, 4176, 4184, 4192, 4200, 4208, 4216, 4224, 4232, 4240, 4248
 4256, 4264, 4272, 4280, 4288, 4296, 4304, 4312, 4320, 4328, 4336, 4344, 4352, 4360, 4368, 4376
 4384, 4392, 4400, 4408, 4416, 4424, 4432, 4440, 4448, 4456, 4464, 4472, 4480, 4488, 4496, 4504
 4512, 4520, 4528, 4536, 4544, 4552, 4560, 4568, 4576, 4584, 4592, 4600, 4608, 4616, 4624, 4632
 4640, 4648, 4656, 4664, 4672, 4680, 4688, 4696, 4704, 4712, 4720, 4728, 4736, 4744, 4752, 4760
 4768, 4776, 4784, 4792, 4800, 4808, 4816, 4824, 5000, 5008, 5016, 5024, 5032, 5040, 5048, 5056
 5064, 5072, 5080, 5088, 5096, 5104, 5112, 5120, 5128, 5136, 5144, 5152, 5160, 5168, 5176, 5184
 5192, 5200, 5208, 5216, 5224, 5232, 5240, 5248, 5256, 5264, 5272, 5280, 5288, 5296, 5304, 5312
 5320, 5328, 5336, 5344, 5352, 5360, 5368, 5376, 5384, 5392, 5400, 5408, 5416, 5424, 5432, 5440
 5448, 5456, 5464, 5472, 5480, 5488, 5496, 5504, 5512, 5520, 5528, 5536, 5544, 5552, 5560, 5568
 5576, 5584, 5592, 5600, 5608, 5616, 5624, 5632, 5640, 5648, 5656, 5664, 5672, 5680, 5688, 5696
 5704, 5712, 5720, 5728, 5736, 5744, 5752, 5760, 5768, 5776, 5784, 5792, 5800, 5808, 5816, 5824
 5832, 5840, 5848, 5856, 5864, 5872, 5880, 5888, 5896, 5904, 5912, 5920, 5928, 5936, 5944, 5952
 5960, 5968, 5976, 5984, 5992, 6000, 6008, 6016, 6024, 6032, 6040, 6048, 6056, 6064, 6072, 6080
 6088, 6096, 6104, 6112, 6120, 6128, 6136, 6144, 6440, 6448, 6456, 6464, 6472, 6480, 6488, 6496
 6504, 6512, 6520, 6528, 6536, 6544, 6552, 6560, 6568, 6576, 6584, 6592, 6600, 6608, 6616, 6624
 6632, 6640, 6648, 6656, 6664, 6672, 6680, 6688, 6696, 6704, 6712, 6720, 6728, 6736, 6744, 6752
 6760, 6768, 6776, 6784, 6792, 6800, 6808, 6816, 6824, 6832, 6840, 6848, 6856, 6864, 6872, 6880
 6888, 6896, 6904, 6912, 6920, 6928, 6936, 6944, 6952, 6960, 6968, 6976, 6984, 6992, 7000, 7008
*Elset, elset=_OUTER_SURF_S1_1, internal, instance=PART-1-1
  801,  802,  803,  804,  805,  806,  807,  808,  809,  810,  811,  812,  813,  814,  815,  816
  817,  818,  819,  820,  821,  822,  823,  824,  825,  826,  827,  828,  829,  830,  831,  832
  833,  834,  835,  836,  837,  838,  839,  840,  841,  842,  843,  844,  845,  846,  847,  848
  849,  850,  851,  852,  853,  854,  855,  856,  857,  858,  859,  860,  861,  862,  863,  864
  865,  866,  867,  868,  869,  870,  871,  872,  873,  874,  875,  876,  877,  878,  879,  880
  881,  882,  883,  884,  885,  886,  887,  888,  889,  890,  891,  892,  893,  894,  895,  896
  897,  898,  899,  900,  901,  902,  903,  904,  905,  906,  907,  908,  909,  910,  911,  912
  913,  914,  915,  916,  917,  918,  919,  920,  921,  922,  923,  924,  925,  926,  927,  928
  929,  930,  931,  932,  933,  934,  935,  936,  937,  938,  939,  940,  941,  942,  943,  944
  945,  946,  947,  948,  949,  950,  951,  952,  953,  954,  955,  956,  957,  958,  959,  960
  981,  982,  983,  984, 2185, 2186, 2187, 2188, 2189, 2190, 2191, 2192, 2193, 2194, 2195, 2196
 2197, 2198, 2199, 2200, 2201, 2202, 2203, 2204, 2205, 2206, 2207, 2208, 2209, 2210, 2211, 2212
 2213, 2214, 2215, 2216, 2217, 2218, 2219, 2220, 2221, 2222, 2223, 2224, 2225, 2226, 2227, 2228
 2229, 2230, 2231, 2232, 2233, 2234, 2235, 2236, 2237, 2238, 2239, 2240, 2241, 2242, 2243, 2244
 2245, 2246, 2247, 2248, 2249, 2250, 2251, 2252, 2253, 2254, 2255, 2256, 2257, 2258, 2259, 2260
 2261, 2262, 2263, 2264, 2265, 2266, 2267, 2268, 2269, 2270, 2271, 2272, 2273, 2274, 2275, 2276
 2277, 2278, 2279, 2280, 2281, 2282, 2283, 2284, 2285, 2286, 2287, 2288, 2289, 2290, 2291, 2292
 2293, 2294, 2295, 2296, 2297, 2298, 2299, 2300, 2301, 2302, 2303, 2304, 2305, 2306, 2307, 2308
 2309, 2310, 2311, 2312, 2313, 2314, 2315, 2316, 2317, 2318, 2319, 2320, 2321, 2322, 2323, 2324
 2325, 2326, 2327, 2328, 2329, 2330, 2331, 2332, 2333, 2334, 2335, 2336, 2337, 2338, 2339, 2340
 2341, 2342, 2343, 2344, 2345, 2346, 2347, 2348, 2349, 2350, 2351, 2352, 2353, 2354, 2355, 2356
 2357, 2358, 2359, 2360, 2361, 2362, 2363, 2364, 2365, 2366, 2367, 2368, 2369, 2370, 2371, 2372
 2373, 2374, 2375, 2376, 2377, 2378, 2379, 2380, 2381, 2382, 2383, 2384, 2385, 2386, 2387, 2388
 2389, 2390, 2391, 2392, 2393, 2394, 2395, 2396, 2397, 2398, 2399, 2400, 2401, 2402, 2403, 2404
 2405, 2406, 2407, 2408, 2409, 2410, 2411, 2412, 2413, 2414, 2415, 2416, 2417, 2418, 2419, 2420
 2421, 2422, 2423, 2424, 3625, 3626, 3627, 3628, 3629, 3630, 3631, 3632, 3633, 3634, 3635, 3636
 3637, 3638, 3639, 3640, 3641, 3642, 3643, 3644, 3645, 3646, 3647, 3648, 3649, 3650, 3651, 3652
 3653, 3654, 3655, 3656, 3657, 3658, 3659, 3660, 3661, 3662, 3663, 3664, 3665, 3666, 3667, 3668
 3669, 3670, 3671, 3672, 3673, 3674, 3675, 3676, 3677, 3678, 3679, 3680, 3681, 3682, 3683, 3684
 3685, 3686, 3687, 3688, 3689, 3690, 3691, 3692, 3693, 3694, 3695, 3696, 3697, 3698, 3699, 3700
 3701, 3702, 3703, 3704, 3705, 3706, 3707, 3708, 3709, 3710, 3711, 3712, 3713, 3714, 3715, 3716
 3717, 3718, 3719, 3720, 3721, 3722, 3723, 3724, 3725, 3726, 3727, 3728, 3729, 3730, 3731, 3732
 3733, 3734, 3735, 3736, 3737, 3738, 3739, 3740, 3741, 3742, 3743, 3744, 3745, 3746, 3747, 3748
 3749, 3750, 3751, 3752, 3753, 3754, 3755, 3756, 3757, 3758, 3759, 3760, 3761, 3762, 3763, 3764
 3765, 3766, 3767, 3768, 3769, 3770, 3771, 3772, 3773, 3774, 3775, 3776, 3777, 3778, 3779, 3780
 3781, 3782, 3783, 3784, 3785, 3786, 3787, 3788, 3789, 3790, 3791, 3792, 3793, 3794, 3795, 3796
 3797, 3798, 3799, 3800, 3801, 3802, 3803, 3804, 3805, 3806, 3807, 3808, 3809, 3810, 3811, 3812
 3813, 3814, 3815, 3816, 3817, 3818, 3819, 3820, 3821, 3822, 3823, 3824, 3825, 3826, 3827, 3828
 3829, 3830, 3831, 3832, 3833, 3834, 3835, 3836, 3837, 3838, 3839, 3840, 3841, 3842, 3843, 3844
 3845, 3846, 3847, 3848, 3849, 3850, 3851, 3852, 3853, 3854, 3855, 3856, 3857, 3858, 3859, 3860
 3861, 3862, 3863, 3864, 4265, 4266, 4267, 4268, 4269, 4270, 4271, 4272, 4273, 4274, 4275, 4276
 4277, 4278, 4279, 4280, 4281, 4282, 4283, 4284, 4285, 4286, 4287, 4288, 4289, 4290, 4291, 4292
 4293, 4294, 4295, 4296, 4297, 4298, 4299, 4300, 4301, 4302, 4303, 4304, 4305, 4306, 4307, 4308
 4309, 4310, 4311, 4312, 4313, 4314, 4315, 4316, 4317, 4318, 4319, 4320, 4321, 4322, 4323, 4324
 4325, 4326, 4327, 4328, 4329, 4330, 4331, 4332, 4333, 4334, 4335, 4336, 4337, 4338, 4339, 4340
 4341, 4342, 4343, 4344, 4745, 4746, 4747, 4748, 4749, 4750, 4751, 4752, 4753, 4754, 4755, 4756
 4757, 4758, 4759, 4760, 4761, 4762, 4763, 4764, 4765, 4766, 4767, 4768, 4769, 4770, 4771, 4772
 4773, 4774, 4775, 4776, 4777, 4778, 4779, 4780, 4781, 4782, 4783, 4784, 4785, 4786, 4787, 4788
 4789, 4790, 4791, 4792, 4793, 4794, 4795, 4796, 4797, 4798, 4799, 4800, 4801, 4802, 4803, 4804
 4805, 4806, 4807, 4808, 4809, 4810, 4811, 4812, 4813, 4814, 4815, 4816, 4817, 4818, 4819, 4820
 4821, 4822, 4823, 4824, 4965, 4966, 4967, 4968, 4969, 4970, 4971, 4972, 4973, 4974, 4975, 4976
 4977, 4978, 4979, 4980, 4981, 4982, 4983, 4984, 4985, 4986, 4987, 4988, 4989, 4990, 4991, 4992
 5153, 5154, 5155, 5156, 5157, 5158, 5159, 5160, 5161, 5162, 5163, 5164, 5165, 5166, 5167, 5168
 5169, 5170, 5171, 5172, 5173, 5174, 5175, 5176, 5177, 5178, 5179, 5180, 5181, 5182, 5183, 5184
 5585, 5586, 5587, 5588, 5589, 5590, 5591, 5592, 5593, 5594, 5595, 5596, 5597, 5598, 5599, 5600
 5601, 5602, 5603, 5604, 5605, 5606, 5607, 5608, 5609, 5610, 5611, 5612, 5613, 5614, 5615, 5616
 5617, 5618, 5619, 5620, 5621, 5622, 5623, 5624, 5625, 5626, 5627, 5628, 5629, 5630, 5631, 5632
 5633, 5634, 5635, 5636, 5637, 5638, 5639, 5640, 5641, 5642, 5643, 5644, 5645, 5646, 5647, 5648
 5649, 5650, 5651, 5652, 5653, 5654, 5655, 5656, 5657, 5658, 5659, 5660, 5661, 5662, 5663, 5664
 6065, 6066, 6067, 6068, 6069, 6070, 6071, 6072, 6073, 6074, 6075, 6076, 6077, 6078, 6079, 6080
 6081, 6082, 6083, 6084, 6085, 6086, 6087, 6088, 6089, 6090, 6091, 6092, 6093, 6094, 6095, 6096
 6097, 6098, 6099, 6100, 6101, 6102, 6103, 6104, 6105, 6106, 6107, 6108, 6109, 6110, 6111, 6112
 6113, 6114, 6115, 6116, 6117, 6118, 6119, 6120, 6121, 6122, 6123, 6124, 6125, 6126, 6127, 6128
 6129, 6130, 6131, 6132, 6133, 6134, 6135, 6136, 6137, 6138, 6139, 6140, 6141, 6142, 6143, 6144
 6385, 6386, 6387, 6388, 6389, 6390, 6391, 6392, 6393, 6394, 6395, 6396, 6397, 6398, 6399, 6400
 6401, 6402, 6403, 6404, 6405, 6406, 6407, 6408, 6409, 6410, 6411, 6412, 6413, 6414, 6415, 6416
 6417, 6418, 6419, 6420, 6421, 6422, 6423, 6424, 6425, 6426, 6427, 6428, 6429, 6430, 6431, 6432
 6673, 6674, 6675, 6676, 6677, 6678, 6679, 6680, 6681, 6682, 6683, 6684, 6685, 6686, 6687, 6688
 6689, 6690, 6691, 6692, 6693, 6694, 6695, 6696, 6697, 6698, 6699, 6700, 6701, 6702, 6703, 6704
 6705, 6706, 6707, 6708, 6709, 6710, 6711, 6712, 6713, 6714, 6715, 6716, 6717, 6718, 6719, 6720
 6961, 6962, 6963, 6964, 6965, 6966, 6967, 6968, 6969, 6970, 6971, 6972, 6973, 6974, 6975, 6976
 6977, 6978, 6979, 6980, 6981, 6982, 6983, 6984, 6985, 6986, 6987, 6988, 6989, 6990, 6991, 6992
 6993, 6994, 6995, 6996, 6997, 6998, 6999, 7000, 7001, 7002, 7003, 7004, 7005, 7006, 7007, 7008
 7249, 7250, 7251, 7252, 7253, 7254, 7255, 7256, 7257, 7258, 7259, 7260, 7261, 7262, 7263, 7264
 7265, 7266, 7267, 7268, 7269, 7270, 7271, 7272, 7273, 7274, 7275, 7276, 7277, 7278, 7279, 7280
 7281, 7282, 7283, 7284, 7285, 7286, 7287, 7288, 7289, 7290, 7291, 7292, 7293, 7294, 7295, 7296
*Elset, elset=_OUTER_SURF_S2_1, internal, instance=PART-1-1
    1,    2,    3,    4,    5,    6,    7,    8,    9,   10,   11,   12,   13,   14,   15,   16
   17,   18,   19,   20,   21,   22,   23,   24,   25,   26,   27,   28,   29,   30,   31,   32
   33,   34,   35,   36,   37,   38,   39,   40,   41,   42,   43,   44,   45,   46,   47,   48
   49,   50,   51,   52,   53,   54,   55,   56,   57,   58,   59,   60,   61,   62,   63,   64
   65,   66,   67,   68,   69,   70,   71,   72,   73,   74,   75,   76,   77,   78,   79,   80
   81,   82,   83,   84,   85,   86,   87,   88,   89,   90,   91,   92,   93,   94,   95,   96
   97,   98,   99,  100,  101,  102,  103,  104,  105,  106,  107,  108,  109,  110,  111,  112
  113,  114,  115,  116,  117,  118,  119,  120,  121,  122,  123,  124,  125,  126,  127,  128
  129,  130,  131,  132,  133,  134,  135,  136,  137,  138,  139,  140,  141,  142,  143,  144
  145,  146,  147,  148,  149,  150,  151,  152,  153,  154,  155,  156,  157,  158,  159,  160
  961,  962,  963,  964,  985,  986,  987,  988,  989,  990,  991,  992,  993,  994,  995,  996
  997,  998,  999, 1000, 1001, 1002, 1003, 1004, 1005, 1006, 1007, 1008, 1009, 1010, 1011, 1012
 1013, 1014, 1015, 1016, 1017, 1018, 1019, 1020, 1021, 1022, 1023, 1024, 1025, 1026, 1027, 1028
 1029, 1030, 1031, 1032, 1033, 1034, 1035, 1036, 1037, 1038, 1039, 1040, 1041, 1042, 1043, 1044
 1045, 1046, 1047, 1048, 1049, 1050, 1051, 1052, 1053, 1054, 1055, 1056, 1057, 1058, 1059, 1060
 1061, 1062, 1063, 1064, 1065, 1066, 1067, 1068, 1069, 1070, 1071, 1072, 1073, 1074, 1075, 1076
 1077, 1078, 1079, 1080, 1081, 1082, 1083, 1084, 1085, 1086, 1087, 1088, 1089, 1090, 1091, 1092
 1093, 1094, 1095, 1096, 1097, 1098, 1099, 1100, 1101, 1102, 1103, 1104, 1105, 1106, 1107, 1108
 1109, 1110, 1111, 1112, 1113, 1114, 1115, 1116, 1117, 1118, 1119, 1120, 1121, 1122, 1123, 1124
 1125, 1126, 1127, 1128, 1129, 1130, 1131, 1132, 1133, 1134, 1135, 1136, 1137, 1138, 1139, 1140
 1141, 1142, 1143, 1144, 1145, 1146, 1147, 1148, 1149, 1150, 1151, 1152, 1153, 1154, 1155, 1156
 1157, 1158, 1159, 1160, 1161, 1162, 1163, 1164, 1165, 1166, 1167, 1168, 1169, 1170, 1171, 1172
 1173, 1174, 1175, 1176, 1177, 1178, 1179, 1180, 1181, 1182, 1183, 1184, 1185, 1186, 1187, 1188
 1189, 1190, 1191, 1192, 1193, 1194, 1195, 1196, 1197, 1198, 1199, 1200, 1201, 1202, 1203, 1204
 1205, 1206, 1207, 1208, 1209, 1210, 1211, 1212, 1213, 1214, 1215, 1216, 1217, 1218, 1219, 1220
 1221, 1222, 1223, 1224, 2425, 2426, 2427, 2428, 2429, 2430, 2431, 2432, 2433, 2434, 2435, 2436
 2437, 2438, 2439, 2440, 2441, 2442, 2443, 2444, 2445, 2446, 2447, 2448, 2449, 2450, 2451, 2452
 2453, 2454, 2455, 2456, 2457, 2458, 2459, 2460, 2461, 2462, 2463, 2464, 2465, 2466, 2467, 2468
 2469, 2470, 2471, 2472, 2473, 2474, 2475, 2476, 2477, 2478, 2479, 2480, 2481, 2482, 2483, 2484
 2485, 2486, 2487, 2488, 2489, 2490, 2491, 2492, 2493, 2494, 2495, 2496, 2497, 2498, 2499, 2500
 2501, 2502, 2503, 2504, 2505, 2506, 2507, 2508, 2509, 2510, 2511, 2512, 2513, 2514, 2515, 2516
 2517, 2518, 2519, 2520, 2521, 2522, 2523, 2524, 2525, 2526, 2527, 2528, 2529, 2530, 2531, 2532
 2533, 2534, 2535, 2536, 2537, 2538, 2539, 2540, 2541, 2542, 2543, 2544, 2545, 2546, 2547, 2548
 2549, 2550, 2551, 2552, 2553, 2554, 2555, 2556, 2557, 2558, 2559, 2560, 2561, 2562, 2563, 2564
 2565, 2566, 2567, 2568, 2569, 2570, 2571, 2572, 2573, 2574, 2575, 2576, 2577, 2578, 2579, 2580
 2581, 2582, 2583, 2584, 2585, 2586, 2587, 2588, 2589, 2590, 2591, 2592, 2593, 2594, 2595, 2596
 2597, 2598, 2599, 2600, 2601, 2602, 2603, 2604, 2605, 2606, 2607, 2608, 2609, 2610, 2611, 2612
 2613, 2614, 2615, 2616, 2617, 2618, 2619, 2620, 2621, 2622, 2623, 2624, 2625, 2626, 2627, 2628
 2629, 2630, 2631, 2632, 2633, 2634, 2635, 2636, 2637, 2638, 2639, 2640, 2641, 2642, 2643, 2644
 2645, 2646, 2647, 2648, 2649, 2650, 2651, 2652, 2653, 2654, 2655, 2656, 2657, 2658, 2659, 2660
 2661, 2662, 2663, 2664, 3865, 3866, 3867, 3868, 3869, 3870, 3871, 3872, 3873, 3874, 3875, 3876
 3877, 3878, 3879, 3880, 3881, 3882, 3883, 3884, 3885, 3886, 3887, 3888, 3889, 3890, 3891, 3892
 3893, 3894, 3895, 3896, 3897, 3898, 3899, 3900, 3901, 3902, 3903, 3904, 3905, 3906, 3907, 3908
 3909, 3910, 3911, 3912, 3913, 3914, 3915, 3916, 3917, 3918, 3919, 3920, 3921, 3922, 3923, 3924
 3925, 3926, 3927, 3928, 3929, 3930, 3931, 3932, 3933, 3934, 3935, 3936, 3937, 3938, 3939, 3940
 3941, 3942, 3943, 3944, 4345, 4346, 4347, 4348, 4349, 4350, 4351, 4352, 4353, 4354, 4355, 4356
 4357, 4358, 4359, 4360, 4361, 4362, 4363, 4364, 4365, 4366, 4367, 4368, 4369, 4370, 4371, 4372
 4373, 4374, 4375, 4376, 4377, 4378, 4379, 4380, 4381, 4382, 4383, 4384, 4385, 4386, 4387, 4388
 4389, 4390, 4391, 4392, 4393, 4394, 4395, 4396, 4397, 4398, 4399, 4400, 4401, 4402, 4403, 4404
 4405, 4406, 4407, 4408, 4409, 4410, 4411, 4412, 4413, 4414, 4415, 4416, 4417, 4418, 4419, 4420
 4421, 4422, 4423, 4424, 4825, 4826, 4827, 4828, 4829, 4830, 4831, 4832, 4833, 4834, 4835, 4836
 4837, 4838, 4839, 4840, 4841, 4842, 4843, 4844, 4845, 4846, 4847, 4848, 4849, 4850, 4851, 4852
 4993, 4994, 4995, 4996, 4997, 4998, 4999, 5000, 5001, 5002, 5003, 5004, 5005, 5006, 5007, 5008
 5009, 5010, 5011, 5012, 5013, 5014, 5015, 5016, 5017, 5018, 5019, 5020, 5021, 5022, 5023, 5024
 5185, 5186, 5187, 5188, 5189, 5190, 5191, 5192, 5193, 5194, 5195, 5196, 5197, 5198, 5199, 5200
 5201, 5202, 5203, 5204, 5205, 5206, 5207, 5208, 5209, 5210, 5211, 5212, 5213, 5214, 5215, 5216
 5217, 5218, 5219, 5220, 5221, 5222, 5223, 5224, 5225, 5226, 5227, 5228, 5229, 5230, 5231, 5232
 5233, 5234, 5235, 5236, 5237, 5238, 5239, 5240, 5241, 5242, 5243, 5244, 5245, 5246, 5247, 5248
 5249, 5250, 5251, 5252, 5253, 5254, 5255, 5256, 5257, 5258, 5259, 5260, 5261, 5262, 5263, 5264
 5665, 5666, 5667, 5668, 5669, 5670, 5671, 5672, 5673, 5674, 5675, 5676, 5677, 5678, 5679, 5680
 5681, 5682, 5683, 5684, 5685, 5686, 5687, 5688, 5689, 5690, 5691, 5692, 5693, 5694, 5695, 5696
 5697, 5698, 5699, 5700, 5701, 5702, 5703, 5704, 5705, 5706, 5707, 5708, 5709, 5710, 5711, 5712
 5713, 5714, 5715, 5716, 5717, 5718, 5719, 5720, 5721, 5722, 5723, 5724, 5725, 5726, 5727, 5728
 5729, 5730, 5731, 5732, 5733, 5734, 5735, 5736, 5737, 5738, 5739, 5740, 5741, 5742, 5743, 5744
 6145, 6146, 6147, 6148, 6149, 6150, 6151, 6152, 6153, 6154, 6155, 6156, 6157, 6158, 6159, 6160
 6161, 6162, 6163, 6164, 6165, 6166, 6167, 6168, 6169, 6170, 6171, 6172, 6173, 6174, 6175, 6176
 6177, 6178, 6179, 6180, 6181, 6182, 6183, 6184, 6185, 6186, 6187, 6188, 6189, 6190, 6191, 6192
 6433, 6434, 6435, 6436, 6437, 6438, 6439, 6440, 6441, 6442, 6443, 6444, 6445, 6446, 6447, 6448
 6449, 6450, 6451, 6452, 6453, 6454, 6455, 6456, 6457, 6458, 6459, 6460, 6461, 6462, 6463, 6464
 6465, 6466, 6467, 6468, 6469, 6470, 6471, 6472, 6473, 6474, 6475, 6476, 6477, 6478, 6479, 6480
 6721, 6722, 6723, 6724, 6725, 6726, 6727, 6728, 6729, 6730, 6731, 6732, 6733, 6734, 6735, 6736
 6737, 6738, 6739, 6740, 6741, 6742, 6743, 6744, 6745, 6746, 6747, 6748, 6749, 6750, 6751, 6752
 6753, 6754, 6755, 6756, 6757, 6758, 6759, 6760, 6761, 6762, 6763, 6764, 6765, 6766, 6767, 6768
 7009, 7010, 7011, 7012, 7013, 7014, 7015, 7016, 7017, 7018, 7019, 7020, 7021, 7022, 7023, 7024
 7025, 7026, 7027, 7028, 7029, 7030, 7031, 7032, 7033, 7034, 7035, 7036, 7037, 7038, 7039, 7040
 7041, 7042, 7043, 7044, 7045, 7046, 7047, 7048, 7049, 7050, 7051, 7052, 7053, 7054, 7055, 7056
*Elset, elset=_OUTER_SURF_S4_1, internal, instance=PART-1-1
  985,  991,  997, 1003, 1009, 1015, 1021, 1027, 1033, 1039, 1045, 1051, 1057, 1063, 1069, 1075
 1081, 1087, 1093, 1099, 1105, 1111, 1117, 1123, 1129, 1135, 1141, 1147, 1153, 1159, 1165, 1171
 1177, 1183, 1189, 1195, 1201, 1207, 1213, 1219, 1225, 1231, 1237, 1243, 1249, 1255, 1261, 1267
 1273, 1279, 1285, 1291, 1297, 1303, 1309, 1315, 1321, 1327, 1333, 1339, 1345, 1351, 1357, 1363
 1369, 1375, 1381, 1387, 1393, 1399, 1405, 1411, 1417, 1423, 1429, 1435, 1441, 1447, 1453, 1459
 1465, 1471, 1477, 1483, 1489, 1495, 1501, 1507, 1513, 1519, 1525, 1531, 1537, 1543, 1549, 1555
 1561, 1567, 1573, 1579, 1585, 1591, 1597, 1603, 1609, 1615, 1621, 1627, 1633, 1639, 1645, 1651
 1657, 1663, 1669, 1675, 1681, 1687, 1693, 1699, 1705, 1711, 1717, 1723, 1729, 1735, 1741, 1747
 1753, 1759, 1765, 1771, 1777, 1783, 1789, 1795, 1801, 1807, 1813, 1819, 1825, 1831, 1837, 1843
 1849, 1855, 1861, 1867, 1873, 1879, 1885, 1891, 1897, 1903, 1909, 1915, 1921, 1927, 1933, 1939
 1945, 1951, 1957, 1963, 1969, 1975, 1981, 1987, 1993, 1999, 2005, 2011, 2017, 2023, 2029, 2035
 2041, 2047, 2053, 2059, 2065, 2071, 2077, 2083, 2089, 2095, 2101, 2107, 2113, 2119, 2125, 2131
 2137, 2143, 2149, 2155, 2161, 2167, 2173, 2179, 2185, 2191, 2197, 2203, 2209, 2215, 2221, 2227
 2233, 2239, 2245, 2251, 2257, 2263, 2269, 2275, 2281, 2287, 2293, 2299, 2305, 2311, 2317, 2323
 2329, 2335, 2341, 2347, 2353, 2359, 2365, 2371, 2377, 2383, 2389, 2395, 2401, 2407, 2413, 2419
 2425, 2431, 2437, 2443, 2449, 2455, 2461, 2467, 2473, 2479, 2485, 2491, 2497, 2503, 2509, 2515
 2521, 2527, 2533, 2539, 2545, 2551, 2557, 2563, 2569, 2575, 2581, 2587, 2593, 2599, 2605, 2611
 2617, 2623, 2629, 2635, 2641, 2647, 2653, 2659, 2665, 2671, 2677, 2683, 2689, 2695, 2701, 2707
 2713, 2719, 2725, 2731, 2737, 2743, 2749, 2755, 2761, 2767, 2773, 2779, 2785, 2791, 2797, 2803
 2809, 2815, 2821, 2827, 2833, 2839, 2845, 2851, 2857, 2863, 2869, 2875, 2881, 2887, 2893, 2899
 2905, 2911, 2917, 2923, 2929, 2935, 2941, 2947, 2953, 2959, 2965, 2971, 2977, 2983, 2989, 2995
 3001, 3007, 3013, 3019, 3025, 3031, 3037, 3043, 3049, 3055, 3061, 3067, 3073, 3079, 3085, 3091
 3097, 3103, 3109, 3115, 3121, 3127, 3133, 3139, 3145, 3151, 3157, 3163, 3169, 3175, 3181, 3187
 3193, 3199, 3205, 3211, 3217, 3223, 3229, 3235, 3241, 3247, 3253, 3259, 3265, 3271, 3277, 3283
 3289, 3295, 3301, 3307, 3313, 3319, 3325, 3331, 3337, 3343, 3349, 3355, 3361, 3367, 3373, 3379
 3385, 3391, 3397, 3403, 3409, 3415, 3421, 3427, 3433, 3439, 3445, 3451, 3457, 3463, 3469, 3475
 3481, 3487, 3493, 3499, 3505, 3511, 3517, 3523, 3529, 3535, 3541, 3547, 3553, 3559, 3565, 3571
 3577, 3583, 3589, 3595, 3601, 3607, 3613, 3619, 3625, 3631, 3637, 3643, 3649, 3655, 3661, 3667
 3673, 3679, 3685, 3691, 3697, 3703, 3709, 3715, 3721, 3727, 3733, 3739, 3745, 3751, 3757, 3763
 3769, 3775, 3781, 3787, 3793, 3799, 3805, 3811, 3817, 3823, 3829, 3835, 3841, 3847, 3853, 3859
 3865, 3873, 3881, 3889, 3897, 3905, 3913, 3921, 3929, 3937, 3945, 3953, 3961, 3969, 3977, 3985
 3993, 4001, 4009, 4017, 4025, 4033, 4041, 4049, 4057, 4065, 4073, 4081, 4089, 4097, 4105, 4113
 4121, 4129, 4137, 4145, 4153, 4161, 4169, 4177, 4185, 4193, 4201, 4209, 4217, 4225, 4233, 4241
 4249, 4257, 4265, 4273, 4281, 4289, 4297, 4305, 4313, 4321, 4329, 4337, 4345, 4353, 4361, 4369
 4377, 4385, 4393, 4401, 4409, 4417, 4425, 4433, 4441, 4449, 4457, 4465, 4473, 4481, 4489, 4497
 4505, 4513, 4521, 4529, 4537, 4545, 4553, 4561, 4569, 4577, 4585, 4593, 4601, 4609, 4617, 4625
 4633, 4641, 4649, 4657, 4665, 4673, 4681, 4689, 4697, 4705, 4713, 4721, 4729, 4737, 4745, 4753
 4761, 4769, 4777, 4785, 4793, 4801, 4809, 4817, 4825, 4832, 4839, 4846, 4853, 4860, 4867, 4874
 4881, 4888, 4895, 4902, 4909, 4916, 4923, 4930, 4937, 4944, 4951, 4958, 4965, 4972, 4979, 4986
 5185, 5193, 5201, 5209, 5217, 5225, 5233, 5241, 5249, 5257, 5265, 5273, 5281, 5289, 5297, 5305
 5313, 5321, 5329, 5337, 5345, 5353, 5361, 5369, 5377, 5385, 5393, 5401, 5409, 5417, 5425, 5433
 5441, 5449, 5457, 5465, 5473, 5481, 5489, 5497, 5505, 5513, 5521, 5529, 5537, 5545, 5553, 5561
 5569, 5577, 5585, 5593, 5601, 5609, 5617, 5625, 5633, 5641, 5649, 5657, 5665, 5673, 5681, 5689
 5697, 5705, 5713, 5721, 5729, 5737, 5745, 5753, 5761, 5769, 5777, 5785, 5793, 5801, 5809, 5817
 5825, 5833, 5841, 5849, 5857, 5865, 5873, 5881, 5889, 5897, 5905, 5913, 5921, 5929, 5937, 5945
 5953, 5961, 5969, 5977, 5985, 5993, 6001, 6009, 6017, 6025, 6033, 6041, 6049, 6057, 6065, 6073
 6081, 6089, 6097, 6105, 6113, 6121, 6129, 6137, 6145, 6153, 6161, 6169, 6177, 6185, 6193, 6201
 6209, 6217, 6225, 6233, 6241, 6249, 6257, 6265, 6273, 6281, 6289, 6297, 6305, 6313, 6321, 6329
 6337, 6345, 6353, 6361, 6369, 6377, 6385, 6393, 6401, 6409, 6417, 6425, 7009, 7017, 7025, 7033
 7041, 7049, 7057, 7065, 7073, 7081, 7089, 7097, 7105, 7113, 7121, 7129, 7137, 7145, 7153, 7161
 7169, 7177, 7185, 7193, 7201, 7209, 7217, 7225, 7233, 7241, 7249, 7257, 7265, 7273, 7281, 7289
*Elset, elset=_OUTER_SURF_S6_1, internal, instance=PART-1-1
  990,  996, 1002, 1008, 1014, 1020, 1026, 1032, 1038, 1044, 1050, 1056, 1062, 1068, 1074, 1080
 1086, 1092, 1098, 1104, 1110, 1116, 1122, 1128, 1134, 1140, 1146, 1152, 1158, 1164, 1170, 1176
 1182, 1188, 1194, 1200, 1206, 1212, 1218, 1224, 1230, 1236, 1242, 1248, 1254, 1260, 1266, 1272
 1278, 1284, 1290, 1296, 1302, 1308, 1314, 1320, 1326, 1332, 1338, 1344, 1350, 1356, 1362, 1368
 1374, 1380, 1386, 1392, 1398, 1404, 1410, 1416, 1422, 1428, 1434, 1440, 1446, 1452, 1458, 1464
 1470, 1476, 1482, 1488, 1494, 1500, 1506, 1512, 1518, 1524, 1530, 1536, 1542, 1548, 1554, 1560
 1566, 1572, 1578, 1584, 1590, 1596, 1602, 1608, 1614, 1620, 1626, 1632, 1638, 1644, 1650, 1656
 1662, 1668, 1674, 1680, 1686, 1692, 1698, 1704, 1710, 1716, 1722, 1728, 1734, 1740, 1746, 1752
 1758, 1764, 1770, 1776, 1782, 1788, 1794, 1800, 1806, 1812, 1818, 1824, 1830, 1836, 1842, 1848
 1854, 1860, 1866, 1872, 1878, 1884, 1890, 1896, 1902, 1908, 1914, 1920, 1926, 1932, 1938, 1944
 1950, 1956, 1962, 1968, 1974, 1980, 1986, 1992, 1998, 2004, 2010, 2016, 2022, 2028, 2034, 2040
 2046, 2052, 2058, 2064, 2070, 2076, 2082, 2088, 2094, 2100, 2106, 2112, 2118, 2124, 2130, 2136
 2142, 2148, 2154, 2160, 2166, 2172, 2178, 2184, 2190, 2196, 2202, 2208, 2214, 2220, 2226, 2232
 2238, 2244, 2250, 2256, 2262, 2268, 2274, 2280, 2286, 2292, 2298, 2304, 2310, 2316, 2322, 2328
 2334, 2340, 2346, 2352, 2358, 2364, 2370, 2376, 2382, 2388, 2394, 2400, 2406, 2412, 2418, 2424
 2430, 2436, 2442, 2448, 2454, 2460, 2466, 2472, 2478, 2484, 2490, 2496, 2502, 2508, 2514, 2520
 2526, 2532, 2538, 2544, 2550, 2556, 2562, 2568, 2574, 2580, 2586, 2592, 2598, 2604, 2610, 2616
 2622, 2628, 2634, 2640, 2646, 2652, 2658, 2664, 2670, 2676, 2682, 2688, 2694, 2700, 2706, 2712
 2718, 2724, 2730, 2736, 2742, 2748, 2754, 2760, 2766, 2772, 2778, 2784, 2790, 2796, 2802, 2808
 2814, 2820, 2826, 2832, 2838, 2844, 2850, 2856, 2862, 2868, 2874, 2880, 2886, 2892, 2898, 2904
 2910, 2916, 2922, 2928, 2934, 2940, 2946, 2952, 2958, 2964, 2970, 2976, 2982, 2988, 2994, 3000
 3006, 3012, 3018, 3024, 3030, 3036, 3042, 3048, 3054, 3060, 3066, 3072, 3078, 3084, 3090, 3096
 3102, 3108, 3114, 3120, 3126, 3132, 3138, 3144, 3150, 3156, 3162, 3168, 3174, 3180, 3186, 3192
 3198, 3204, 3210, 3216, 3222, 3228, 3234, 3240, 3246, 3252, 3258, 3264, 3270, 3276, 3282, 3288
 3294, 3300, 3306, 3312, 3318, 3324, 3330, 3336, 3342, 3348, 3354, 3360, 3366, 3372, 3378, 3384
 3390, 3396, 3402, 3408, 3414, 3420, 3426, 3432, 3438, 3444, 3450, 3456, 3462, 3468, 3474, 3480
 3486, 3492, 3498, 3504, 3510, 3516, 3522, 3528, 3534, 3540, 3546, 3552, 3558, 3564, 3570, 3576
 3582, 3588, 3594, 3600, 3606, 3612, 3618, 3624, 3630, 3636, 3642, 3648, 3654, 3660, 3666, 3672
 3678, 3684, 3690, 3696, 3702, 3708, 3714, 3720, 3726, 3732, 3738, 3744, 3750, 3756, 3762, 3768
 3774, 3780, 3786, 3792, 3798, 3804, 3810, 3816, 3822, 3828, 3834, 3840, 3846, 3852, 3858, 3864
 3872, 3880, 3888, 3896, 3904, 3912, 3920, 3928, 3936, 3944, 3952, 3960, 3968, 3976, 3984, 3992
 4000, 4008, 4016, 4024, 4032, 4040, 4048, 4056, 4064, 4072, 4080, 4088, 4096, 4104, 4112, 4120
 4128, 4136, 4144, 4152, 4160, 4168, 4176, 4184, 4192, 4200, 4208, 4216, 4224, 4232, 4240, 4248
 4256, 4264, 4272, 4280, 4288, 4296, 4304, 4312, 4320, 4328, 4336, 4344, 4352, 4360, 4368, 4376
 4384, 4392, 4400, 4408, 4416, 4424, 4432, 4440, 4448, 4456, 4464, 4472, 4480, 4488, 4496, 4504
 4512, 4520, 4528, 4536, 4544, 4552, 4560, 4568, 4576, 4584, 4592, 4600, 4608, 4616, 4624, 4632
 4640, 4648, 4656, 4664, 4672, 4680, 4688, 4696, 4704, 4712, 4720, 4728, 4736, 4744, 4752, 4760
 4768, 4776, 4784, 4792, 4800, 4808, 4816, 4824, 5000, 5008, 5016, 5024, 5032, 5040, 5048, 5056
 5064, 5072, 5080, 5088, 5096, 5104, 5112, 5120, 5128, 5136, 5144, 5152, 5160, 5168, 5176, 5184
 5192, 5200, 5208, 5216, 5224, 5232, 5240, 5248, 5256, 5264, 5272, 5280, 5288, 5296, 5304, 5312
 5320, 5328, 5336, 5344, 5352, 5360, 5368, 5376, 5384, 5392, 5400, 5408, 5416, 5424, 5432, 5440
 5448, 5456, 5464, 5472, 5480, 5488, 5496, 5504, 5512, 5520, 5528, 5536, 5544, 5552, 5560, 5568
 5576, 5584, 5592, 5600, 5608, 5616, 5624, 5632, 5640, 5648, 5656, 5664, 5672, 5680, 5688, 5696
 5704, 5712, 5720, 5728, 5736, 5744, 5752, 5760, 5768, 5776, 5784, 5792, 5800, 5808, 5816, 5824
 5832, 5840, 5848, 5856, 5864, 5872, 5880, 5888, 5896, 5904, 5912, 5920, 5928, 5936, 5944, 5952
 5960, 5968, 5976, 5984, 5992, 6000, 6008, 6016, 6024, 6032, 6040, 6048, 6056, 6064, 6072, 6080
 6088, 6096, 6104, 6112, 6120, 6128, 6136, 6144, 6440, 6448, 6456, 6464, 6472, 6480, 6488, 6496
 6504, 6512, 6520, 6528, 6536, 6544, 6552, 6560, 6568, 6576, 6584, 6592, 6600, 6608, 6616, 6624
 6632, 6640, 6648, 6656, 6664, 6672, 6680, 6688, 6696, 6704, 6712, 6720, 6728, 6736, 6744, 6752
 6760, 6768, 6776, 6784, 6792, 6800, 6808, 6816, 6824, 6832, 6840, 6848, 6856, 6864, 6872, 6880
 6888, 6896, 6904, 6912, 6920, 6928, 6936, 6944, 6952, 6960, 6968, 6976, 6984, 6992, 7000, 7008
*Elset, elset=_OUTER_SURF_S3_1, internal, instance=PART-1-1
 121, 122, 123, 124, 125, 126, 127, 128, 129, 130, 131, 132, 133, 134, 135, 136
 137, 138, 139, 140, 141, 142, 143, 144, 145, 146, 147, 148, 149, 150, 151, 152
 153, 154, 155, 156, 157, 158, 159, 160, 281, 282, 283, 284, 285, 286, 287, 288
 289, 290, 291, 292, 293, 294, 295, 296, 297, 298, 299, 300, 301, 302, 303, 304
 305, 306, 307, 308, 309, 310, 311, 312, 313, 314, 315, 316, 317, 318, 319, 320
 441, 442, 443, 444, 445, 446, 447, 448, 449, 450, 451, 452, 453, 454, 455, 456
 457, 458, 459, 460, 461, 462, 463, 464, 465, 466, 467, 468, 469, 470, 471, 472
 473, 474, 475, 476, 477, 478, 479, 480, 601, 602, 603, 604, 605, 606, 607, 608
 609, 610, 611, 612, 613, 614, 615, 616, 617, 618, 619, 620, 621, 622, 623, 624
 625, 626, 627, 628, 629, 630, 631, 632, 633, 634, 635, 636, 637, 638, 639, 640
 761, 762, 763, 764, 765, 766, 767, 768, 769, 770, 771, 772, 773, 774, 775, 776
 777, 778, 779, 780, 781, 782, 783, 784, 785, 786, 787, 788, 789, 790, 791, 792
 793, 794, 795, 796, 797, 798, 799, 800, 921, 922, 923, 924, 925, 926, 927, 928
 929, 930, 931, 932, 933, 934, 935, 936, 937, 938, 939, 940, 941, 942, 943, 944
 945, 946, 947, 948, 949, 950, 951, 952, 953, 954, 955, 956, 957, 958, 959, 960
*Elset, elset=_OUTER_SURF_S5_1, internal, instance=PART-1-1
    1,    2,    3,    4,    5,    6,    7,    8,    9,   10,   11,   12,   13,   14,   15,   16
   17,   18,   19,   20,   21,   22,   23,   24,   25,   26,   27,   28,   29,   30,   31,   32
   33,   34,   35,   36,   37,   38,   39,   40,  161,  162,  163,  164,  165,  166,  167,  168
  169,  170,  171,  172,  173,  174,  175,  176,  177,  178,  179,  180,  181,  182,  183,  184
  185,  186,  187,  188,  189,  190,  191,  192,  193,  194,  195,  196,  197,  198,  199,  200
  321,  322,  323,  324,  325,  326,  327,  328,  329,  330,  331,  332,  333,  334,  335,  336
  337,  338,  339,  340,  341,  342,  343,  344,  345,  346,  347,  348,  349,  350,  351,  352
  353,  354,  355,  356,  357,  358,  359,  360,  481,  482,  483,  484,  485,  486,  487,  488
  489,  490,  491,  492,  493,  494,  495,  496,  497,  498,  499,  500,  501,  502,  503,  504
  505,  506,  507,  508,  509,  510,  511,  512,  513,  514,  515,  516,  517,  518,  519,  520
  641,  642,  643,  644,  645,  646,  647,  648,  649,  650,  651,  652,  653,  654,  655,  656
  657,  658,  659,  660,  661,  662,  663,  664,  665,  666,  667,  668,  669,  670,  671,  672
  673,  674,  675,  676,  677,  678,  679,  680,  801,  802,  803,  804,  805,  806,  807,  808
  809,  810,  811,  812,  813,  814,  815,  816,  817,  818,  819,  820,  821,  822,  823,  824
  825,  826,  827,  828,  829,  830,  831,  832,  833,  834,  835,  836,  837,  838,  839,  840
 6145, 6146, 6147, 6148, 6149, 6150, 6151, 6152, 6193, 6194, 6195, 6196, 6197, 6198, 6199, 6200
 6241, 6242, 6243, 6244, 6245, 6246, 6247, 6248, 6289, 6290, 6291, 6292, 6293, 6294, 6295, 6296
 6337, 6338, 6339, 6340, 6341, 6342, 6343, 6344, 6385, 6386, 6387, 6388, 6389, 6390, 6391, 6392
 6433, 6434, 6435, 6436, 6437, 6438, 6439, 6440, 6481, 6482, 6483, 6484, 6485, 6486, 6487, 6488
 6529, 6530, 6531, 6532, 6533, 6534, 6535, 6536, 6577, 6578, 6579, 6580, 6581, 6582, 6583, 6584
 6625, 6626, 6627, 6628, 6629, 6630, 6631, 6632, 6673, 6674, 6675, 6676, 6677, 6678, 6679, 6680
 6721, 6722, 6723, 6724, 6725, 6726, 6727, 6728, 6769, 6770, 6771, 6772, 6773, 6774, 6775, 6776
 6817, 6818, 6819, 6820, 6821, 6822, 6823, 6824, 6865, 6866, 6867, 6868, 6869, 6870, 6871, 6872
 6913, 6914, 6915, 6916, 6917, 6918, 6919, 6920, 6961, 6962, 6963, 6964, 6965, 6966, 6967, 6968
 7009, 7010, 7011, 7012, 7013, 7014, 7015, 7016, 7057, 7058, 7059, 7060, 7061, 7062, 7063, 7064
 7105, 7106, 7107, 7108, 7109, 7110, 7111, 7112, 7153, 7154, 7155, 7156, 7157, 7158, 7159, 7160
 7201, 7202, 7203, 7204, 7205, 7206, 7207, 7208, 7249, 7250, 7251, 7252, 7253, 7254, 7255, 7256
*Surface, type=ELEMENT, name=OUTER_SURF
_OUTER_SURF_S1_1, S1
_OUTER_SURF_S2_1, S2
_OUTER_SURF_S4_1, S4
_OUTER_SURF_S6_1, S6
_OUTER_SURF_S3_1, S3
_OUTER_SURF_S5_1, S5
*End Assembly
** 
**
** ----------------------------------------------------------------
** $$$$$$$$$$$$$$$$$ THERMAL PROFILES FOR BCs $$$$$$$$$$$$$$$$$$$$$
** ----------------------------------------------------------------
*Amplitude, name=AMP-1
0,1
<tend>,1
** ----------------------------------------------------------------
** $$$$$$$$$$$$$$$$$$ HEAT TRANSFER PROPERTIES $$$$$$$$$$$$$$$$$$$$
** ----------------------------------------------------------------
** 
*Film Property, name=INTPROP-1
<h>, 273.
<h>, 423.
** 
** ----------------------------------------------------------------
** $$$$$$$$$$$$$$$$$$$$$ PHYSICAL CONSTANTS $$$$$$$$$$$$$$$$$$$$$$$
** ----------------------------------------------------------------
** 
*Physical Constants, absolute zero=0.
** 
** ----------------------------------------------------------------
** $$$$$$$$$$$$$$$$$$$$ BOUNDARY CONDITIONS $$$$$$$$$$$$$$$$$$$$$$$
** ----------------------------------------------------------------
** 
** Name: Disp-BC-1 Type: Displacement/Rotation
*Boundary
PART-1-1.NS4, 1, 1
** Name: Disp-BC-2 Type: Displacement/Rotation
*Boundary
PART-1-1.NS4, 3, 3
** Name: Disp-BC-3 Type: Displacement/Rotation
*Boundary
PART-1-1.NS5, 2, 2
** Name: Disp-BC-4 Type: Displacement/Rotation
*Boundary
PART-1-1.NS5, 3, 3
** 
** ----------------------------------------------------------------
** $$$$$$$$$$$$$$$$$$$$$  INITIAL CONDITIONS $$$$$$$$$$$$$$$$$$$$$$
** ----------------------------------------------------------------
**
** PREDEFINED FIELDS
** 
** Name: Field-1   Type: Temperature
*Initial Conditions, type=TEMPERATURE
PART-1-1.ALLNODES, <T0>
**
** ----------------------------------------------------------------
** $$$$$$$$$$$$$$$$$$$$	     ANALYSIS     $$$$$$$$$$$$$$$$$$$$$$$$$
** ----------------------------------------------------------------
** --------------------STEP: heatup--------------------------------
** 
*Step, name=heatup, nlgeom=YES, amplitude=RAMP, inc=100000
*Coupled Temperature-displacement, creep=explicit, deltmx=10.
0.001, <heat_time>, <dtmin>, <dtmax>
** 
** BOUNDARY CONDITIONS
** 
** Name: Disp-BC-1 Type: Displacement/Rotation
*Boundary, op=NEW
** Name: Disp-BC-2 Type: Displacement/Rotation
*Boundary, op=NEW
** Name: Disp-BC-3 Type: Displacement/Rotation
*Boundary, op=NEW
** Name: Disp-BC-4 Type: Displacement/Rotation
*Boundary, op=NEW
** Name: Disp-BC-5 Type: Displacement/Rotation
**
** -----------------------MECHANICAL BCS-----------------------------
**
*Boundary, op=NEW
PART-1-1.NS4, 1, 1
** Name: Disp-BC-6 Type: Displacement/Rotation
*Boundary, op=NEW
PART-1-1.NS4, 3, 3
** Name: Disp-BC-7 Type: Displacement/Rotation
*Boundary, op=NEW
PART-1-1.NS5, 2, 2
** Name: Disp-BC-8 Type: Displacement/Rotation
*Boundary, op=NEW
PART-1-1.NS5, 3, 3
**
** -----------------------THERMAL BCS--------------------------------
**
** Name: Temp-BC-1 Type: Temperature
*Boundary, op=NEW
PART-1-1.ALLNODES, 11, 11, <Thot>
** 
** OUTPUT REQUESTS
** 
*Restart, write, frequency=99
** 
** FIELD OUTPUT: F-Output-1
** 
*Output, field
*Contact Output
CDISP, CSTRESS
** 
** FIELD OUTPUT: F-Output-2
** 
*Node Output
CF, NT, RF, RFL, U
** 
** FIELD OUTPUT: F-Output-3
** 
*Element Output, directions=YES
HFL, LE, NFORC, PE, PEEQ, PEMAG, S, THE
** 
** HISTORY OUTPUT: H-Output-1
** 
*Output, history, variable=PRESELECT
*End Step
** ----------------------------------------------------------------
** 
** ----------------- STEP: cooldown -------------------------------
** 
*Step, name=cooldown, nlgeom=YES, amplitude=RAMP, inc=10000
*Coupled Temperature-displacement, creep=explicit, deltmx=10.
<dt0>, <tend>, <dtmin>, <dtmax>
** 
** BOUNDARY CONDITIONS
** 
** Name: Disp-BC-5 Type: Displacement/Rotation
*Boundary, op=NEW
** Name: Disp-BC-6 Type: Displacement/Rotation
*Boundary, op=NEW
** Name: Disp-BC-7 Type: Displacement/Rotation
*Boundary, op=NEW
** Name: Disp-BC-8 Type: Displacement/Rotation
*Boundary, op=NEW
** Name: Disp-BC-9 Type: Displacement/Rotation
*Boundary, op=NEW
**
** -----------------------MECHANICAL BCS-----------------------------
**
** $COMMENT: RE-ESTABLISH MECHNICAL BCs
PART-1-1.NS4, 1, 1
** Name: Disp-BC-10 Type: Displacement/Rotation
*Boundary, op=NEW
PART-1-1.NS4, 3, 3
** Name: Disp-BC-11 Type: Displacement/Rotation
*Boundary, op=NEW
PART-1-1.NS5, 2, 2
** Name: Disp-BC-12 Type: Displacement/Rotation
*Boundary, op=NEW
PART-1-1.NS5, 3, 3
** -----------------------REVISE THERMAL BCS-----------------------
** $COMMENT: TURN OFF FIXED TEMPERATURE
** Name: Temp-BC-1 Type: Temperature
*Boundary, op=NEW
** 
** INTERACTIONS
** 
** ----------------TURN ON CONVECTIVE THERMAL BCS--------------------
**
** Interaction: SURFFILM-1
*Sfilm, amplitude=AMP-1
OUTER_SURF, F, <Tsink>, INTPROP-1
** 
** OUTPUT REQUESTS
** 
*Restart, write, frequency=99
** 
** FIELD OUTPUT: F-Output-4
** 
*Output, field
*Contact Output
CDISP, CSTRESS
** 
** FIELD OUTPUT: F-Output-5
** 
*Node Output
CF, NT, RF, RFL, U
** 
** FIELD OUTPUT: F-Output-6
** 
*Element Output, directions=YES
HFL, LE, NFORC, PE, PEEQ, PEMAG, S, THE
** 
** HISTORY OUTPUT: H-Output-2
** 
*Output, history, variable=PRESELECT
*End Step
**----------------STEP 2: ACTUATE1--------------------
** STEP: actuate1
** 
*Step, name=actuate1, nlgeom=YES, inc=1000
*Coupled Temperature-displacement, creep=none, steady state
0.01, 1, 1e-05, 0.01
** 
** BOUNDARY CONDITIONS
** 
*Boundary, op=NEW, AMPLITUDE=AMP-1
PART-1-1.ALLNODES, 11, 11, 298
** Name: actuate1_disp Type: Displacement/Rotation
*Boundary, op=NEW
** Name: apply +U1 displacement
PART-1-1.all_center_nodes, 1, 1, <disp1_mag>
** Name: fixed_frame Type: Displacement/Rotation
*Boundary, op=NEW
PART-1-1.all_outer_frame_nodes, 1, 1
PART-1-1.all_outer_frame_nodes, 2, 2
PART-1-1.all_outer_frame_nodes, 3, 3
** 
** OUTPUT REQUESTS
** 
*Restart, write, frequency=0
** 
** FIELD OUTPUT: F-Output-1
** 
*Output, field
*Contact Output
CDISP, CSTRESS
** 
** FIELD OUTPUT: F-Output-2
** 
*Node Output
CF, NT, RF, U
** 
** FIELD OUTPUT: F-Output-3
** 
*Element Output, directions=YES
LE, NFORC, PE, PEEQ, PEMAG, S, THE
** 
** HISTORY OUTPUT: H-Output-1
** 
*Output, history, variable=PRESELECT
*End Step
**----------------STEP 3: EQUILIBRATE--------------------
** STEP: equilibrate1
** 
*Step, name=equilibrate1, nlgeom=YES, inc=1000
*Coupled Temperature-displacement, creep=explicit, deltmx=10
<equilibration_dt0>, <equilibration_tend>, <equilibration_dtmin>, <equilibration_dtmax>
** 
** BOUNDARY CONDITIONS
** 
*Boundary, op=NEW, AMPLITUDE=AMP-1
PART-1-1.ALLNODES, 11, 11, 298
**
** ---------------- Turn off prescribed displacement BC ----------------
**
** Name: actuate1_disp Type: Displacement/Rotation
*Boundary, op=NEW
**
** ---------------- Turn off fixed frame BCs ---------------------------
**
** Name: U1 fixed_frame Type: Displacement/Rotation
*Boundary, op=NEW
** Name: U2 fixed_frame Type: Displacement/Rotation
*Boundary, op=NEW
** Name: U3 fixed_frame Type: Displacement/Rotation
*Boundary, op=NEW
**
** ---------------- Reactivate fixed frame BCs -------------------------
**
** Name: fixed_frame Type: Displacement/Rotation
*Boundary, op=NEW
PART-1-1.all_outer_frame_nodes, 1, 1
PART-1-1.all_outer_frame_nodes, 2, 2
PART-1-1.all_outer_frame_nodes, 3, 3
** 
** OUTPUT REQUESTS
** 
*Restart, write, frequency=0
** 
** FIELD OUTPUT: F-Output-1
** 
*Output, field
*Contact Output
CDISP, CSTRESS
** 
** FIELD OUTPUT: F-Output-2
** 
*Node Output
CF, NT, RF, U
** 
** FIELD OUTPUT: F-Output-3
** 
*Element Output, directions=YES
LE, NFORC, PE, PEEQ, PEMAG, S, THE
** 
** HISTORY OUTPUT: H-Output-1
** 
*Output, history, variable=PRESELECT
*End Step
**----------------STEP 4: ACTUATE1--------------------
** STEP: actuate2
** 
*Step, name=actuate2, nlgeom=YES, inc=1000
*Coupled Temperature-displacement, creep=none, steady state
0.01, 1, 1e-05, 0.01
** 
** BOUNDARY CONDITIONS
** 
*Boundary, op=NEW, AMPLITUDE=AMP-1
PART-1-1.ALLNODES, 11, 11, 298
** Name: actuate1_disp Type: Displacement/Rotation
*Boundary, op=NEW
** Name: apply +U1 displacement
PART-1-1.all_center_nodes, 1, 1, <disp2_mag>
** Name: fixed_frame Type: Displacement/Rotation
*Boundary, op=NEW
PART-1-1.all_outer_frame_nodes, 1, 1
PART-1-1.all_outer_frame_nodes, 2, 2
PART-1-1.all_outer_frame_nodes, 3, 3
** 
** OUTPUT REQUESTS
** 
*Restart, write, frequency=0
** 
** FIELD OUTPUT: F-Output-1
** 
*Output, field
*Contact Output
CDISP, CSTRESS
** 
** FIELD OUTPUT: F-Output-2
** 
*Node Output
CF, NT, RF, U
** 
** FIELD OUTPUT: F-Output-3
** 
*Element Output, directions=YES
LE, NFORC, PE, PEEQ, PEMAG, S, THE
** 
** HISTORY OUTPUT: H-Output-1
** 
*Output, history, variable=PRESELECT
*End Step
**----------------STEP 5: EQUILIBRATE--------------------
** STEP: equilibrate2
** 
*Step, name=equilibrate2, nlgeom=YES, inc=1000
*Coupled Temperature-displacement, creep=explicit, deltmx=10
<equilibration_dt0>, <equilibration_tend>, <equilibration_dtmin>, <equilibration_dtmax>
** 
** BOUNDARY CONDITIONS
** 
*Boundary, op=NEW, AMPLITUDE=AMP-1
PART-1-1.ALLNODES, 11, 11, 298
**
** ---------------- Turn off prescribed displacement BC
**
** Name: actuate1_disp Type: Displacement/Rotation
*Boundary, op=NEW
**
** ---------------- Turn off fixed frame BCs
**
** Name: U1 fixed_frame Type: Displacement/Rotation
*Boundary, op=NEW
** Name: U2 fixed_frame Type: Displacement/Rotation
*Boundary, op=NEW
** Name: U3 fixed_frame Type: Displacement/Rotation
*Boundary, op=NEW
**
** ---------------- Reactivate fixed frame BCs
**
** Name: fixed_frame Type: Displacement/Rotation
*Boundary, op=NEW
PART-1-1.all_outer_frame_nodes, 1, 1
PART-1-1.all_outer_frame_nodes, 2, 2
PART-1-1.all_outer_frame_nodes, 3, 3
** 
** OUTPUT REQUESTS
** 
*Restart, write, frequency=0
** 
** FIELD OUTPUT: F-Output-1
** 
*Output, field
*Contact Output
CDISP, CSTRESS
** 
** FIELD OUTPUT: F-Output-2
** 
*Node Output
CF, NT, RF, U
** 
** FIELD OUTPUT: F-Output-3
** 
*Element Output, directions=YES
LE, NFORC, PE, PEEQ, PEMAG, S, THE
** 
** HISTORY OUTPUT: H-Output-1
** 
*Output, history, variable=PRESELECT
*End Step
